 Entering Link 1 = C:\G09W\l1.exe PID=     27424.
  
 Copyright (c) 1988,1990,1992,1993,1995,1998,2003,2009, Gaussian, Inc.
                  All Rights Reserved.
  
 This is part of the Gaussian(R) 09 program.  It is based on
 the Gaussian(R) 03 system (copyright 2003, Gaussian, Inc.),
 the Gaussian(R) 98 system (copyright 1998, Gaussian, Inc.),
 the Gaussian(R) 94 system (copyright 1995, Gaussian, Inc.),
 the Gaussian 92(TM) system (copyright 1992, Gaussian, Inc.),
 the Gaussian 90(TM) system (copyright 1990, Gaussian, Inc.),
 the Gaussian 88(TM) system (copyright 1988, Gaussian, Inc.),
 the Gaussian 86(TM) system (copyright 1986, Carnegie Mellon
 University), and the Gaussian 82(TM) system (copyright 1983,
 Carnegie Mellon University). Gaussian is a federally registered
 trademark of Gaussian, Inc.
  
 This software contains proprietary and confidential information,
 including trade secrets, belonging to Gaussian, Inc.
  
 This software is provided under written license and may be
 used, copied, transmitted, or stored only in accord with that
 written license.
  
 The following legend is applicable only to US Government
 contracts under FAR:
  
                    RESTRICTED RIGHTS LEGEND
  
 Use, reproduction and disclosure by the US Government is
 subject to restrictions as set forth in subparagraphs (a)
 and (c) of the Commercial Computer Software - Restricted
 Rights clause in FAR 52.227-19.
  
 Gaussian, Inc.
 340 Quinnipiac St., Bldg. 40, Wallingford CT 06492
  
  
 ---------------------------------------------------------------
 Warning -- This program may not be used in any manner that
 competes with the business of Gaussian, Inc. or will provide
 assistance to any competitor of Gaussian, Inc.  The licensee
 of this program is prohibited from giving any competitor of
 Gaussian, Inc. access to this program.  By using this program,
 the user acknowledges that Gaussian, Inc. is engaged in the
 business of creating and licensing software in the field of
 computational chemistry and represents and warrants to the
 licensee that it is not a competitor of Gaussian, Inc. and that
 it will not use this program in any manner prohibited above.
 ---------------------------------------------------------------
  

 Cite this work as:
 Gaussian 09, Revision A.02,
 M. J. Frisch, G. W. Trucks, H. B. Schlegel, G. E. Scuseria, 
 M. A. Robb, J. R. Cheeseman, G. Scalmani, V. Barone, B. Mennucci, 
 G. A. Petersson, H. Nakatsuji, M. Caricato, X. Li, H. P. Hratchian, 
 A. F. Izmaylov, J. Bloino, G. Zheng, J. L. Sonnenberg, M. Hada, 
 M. Ehara, K. Toyota, R. Fukuda, J. Hasegawa, M. Ishida, T. Nakajima, 
 Y. Honda, O. Kitao, H. Nakai, T. Vreven, J. A. Montgomery, Jr., 
 J. E. Peralta, F. Ogliaro, M. Bearpark, J. J. Heyd, E. Brothers, 
 K. N. Kudin, V. N. Staroverov, R. Kobayashi, J. Normand, 
 K. Raghavachari, A. Rendell, J. C. Burant, S. S. Iyengar, J. Tomasi, 
 M. Cossi, N. Rega, J. M. Millam, M. Klene, J. E. Knox, J. B. Cross, 
 V. Bakken, C. Adamo, J. Jaramillo, R. Gomperts, R. E. Stratmann, 
 O. Yazyev, A. J. Austin, R. Cammi, C. Pomelli, J. W. Ochterski, 
 R. L. Martin, K. Morokuma, V. G. Zakrzewski, G. A. Voth, 
 P. Salvador, J. J. Dannenberg, S. Dapprich, A. D. Daniels, 
 O. Farkas, J. B. Foresman, J. V. Ortiz, J. Cioslowski, 
 and D. J. Fox, Gaussian, Inc., Wallingford CT, 2009.
 
 ******************************************
 Gaussian 09:  IA32W-G09RevA.02 11-Jun-2009
                30-Sep-2025 
 ******************************************
 %chk=C:\Users\saif_\Desktop\downs\GV\prepheral\BF3(opt(freq)).chk
 ----------------------------------------
 # freq hf/6-31++g(d,p) geom=connectivity
 ----------------------------------------
 1/10=4,30=1,38=1,57=2/1,3;
 2/12=2,17=6,18=5,40=1/2;
 3/5=1,6=6,7=1111,11=9,16=1,25=1,30=1,71=2/1,2,3;
 4//1;
 5/5=2,38=5,98=1/2;
 8/6=4,10=90,11=11/1;
 10/13=10,15=4/2;
 11/6=3,8=1,9=11,15=111,16=1/1,2,10;
 10/6=1/2;
 6/7=2,8=2,9=2,10=2,18=1,28=1/1;
 7/8=1,10=1,25=1/1,2,3,16;
 1/10=4,30=1/3;
 99//99;
 -------------------
 Title Card Required
 -------------------
 Symbolic Z-matrix:
 Charge =  0 Multiplicity = 1
 B                     0.        0.        0. 
 F                     0.        1.30225   0. 
 F                     1.12778  -0.65112   0. 
 F                    -1.12778  -0.65112   0. 
 

 GradGradGradGradGradGradGradGradGradGradGradGradGradGradGradGradGradGrad
 Berny optimization.
 Initialization pass.
 Trust Radius=3.00D-01 FncErr=1.00D-07 GrdErr=1.00D-07
 Number of steps in this run=   2 maximum allowed number of steps=   2.
 GradGradGradGradGradGradGradGradGradGradGradGradGradGradGradGradGradGrad

                          Input orientation:                          
 ---------------------------------------------------------------------
 Center     Atomic      Atomic             Coordinates (Angstroms)
 Number     Number       Type             X           Y           Z
 ---------------------------------------------------------------------
      1          5           0        0.000000    0.000000    0.000000
      2          9           0        0.000000    1.302246    0.000000
      3          9           0        1.127778   -0.651123    0.000000
      4          9           0       -1.127778   -0.651123    0.000000
 ---------------------------------------------------------------------
                    Distance matrix (angstroms):
                    1          2          3          4
     1  B    0.000000
     2  F    1.302246   0.000000
     3  F    1.302246   2.255556   0.000000
     4  F    1.302246   2.255556   2.255556   0.000000
 Stoichiometry    BF3
 Framework group  D3H[O(B),3C2(F)]
 Deg. of freedom     1
 Full point group                 D3H     NOp  12
 Largest Abelian subgroup         C2V     NOp   4
 Largest concise Abelian subgroup C2      NOp   2
                         Standard orientation:                         
 ---------------------------------------------------------------------
 Center     Atomic      Atomic             Coordinates (Angstroms)
 Number     Number       Type             X           Y           Z
 ---------------------------------------------------------------------
      1          5           0        0.000000    0.000000    0.000000
      2          9           0        0.000000    1.302246    0.000000
      3          9           0       -1.127778   -0.651123    0.000000
      4          9           0        1.127778   -0.651123    0.000000
 ---------------------------------------------------------------------
 Rotational constants (GHZ):     10.4573771     10.4573771      5.2286886
 Standard basis: 6-31++G(d,p) (6D, 7F)
 There are    34 symmetry adapted basis functions of A1  symmetry.
 There are     7 symmetry adapted basis functions of A2  symmetry.
 There are    22 symmetry adapted basis functions of B1  symmetry.
 There are    13 symmetry adapted basis functions of B2  symmetry.
 Integral buffers will be    262144 words long.
 Raffenetti 1 integral format.
 Two-electron integral symmetry is turned on.
    76 basis functions,   128 primitive gaussians,    76 cartesian basis functions
    16 alpha electrons       16 beta electrons
       nuclear repulsion energy       111.8685946357 Hartrees.
 NAtoms=    4 NActive=    4 NUniq=    2 SFac= 3.00D+00 NAtFMM=   80 NAOKFM=F Big=F
 One-electron integrals computed using PRISM.
 NBasis=    76 RedAO= T  NBF=    34     7    22    13
 NBsUse=    76 1.00D-06 NBFU=    34     7    22    13
 Harris functional with IExCor=  205 diagonalized for initial guess.
 ExpMin= 3.15D-02 ExpMax= 7.00D+03 ExpMxC= 1.05D+03 IAcc=3 IRadAn=         0 AccDes= 0.00D+00
 HarFok:  IExCor=  205 AccDes= 0.00D+00 IRadAn=         0 IDoV= 1
 ScaDFX=  1.000000  1.000000  1.000000  1.000000
 FoFCou: FMM=F IPFlag=           0 FMFlag=      100000 FMFlg1=           0
         NFxFlg=           0 DoJE=T BraDBF=F KetDBF=T FulRan=T
         Omega=  0.000000  0.000000  1.000000  0.000000  0.000000 ICntrl=     500 IOpCl=  0
         NMat0=    1 NMatS0=    1 NMatT0=    0 NMatD0=    1 NMtDS0=    0 NMtDT0=    0
         I1Cent=           4 NGrid=           0.
 Petite list used in FoFCou.
 Initial guess orbital symmetries:
       Occupied  (E') (E') (A1') (A1') (A1') (E') (E') (A1') (E')
                 (E') (A2") (E') (E') (E") (E") (A2')
       Virtual   (A2") (A1') (E') (E') (A2") (A1') (E') (E') (E")
                 (E") (A1') (E') (E') (A2") (A1') (A2') (E') (E')
                 (E') (E') (A2") (E') (E') (A1') (E") (E") (A1')
                 (E") (E") (E') (E') (A2") (A1') (A2') (E') (E')
                 (E') (E') (E") (E") (A1") (E') (E') (A1') (E')
                 (E') (A2') (A1') (A2") (E") (E") (E') (E') (E')
                 (E') (A1') (A1') (A1') (E') (E')
 The electronic state of the initial guess is 1-A1'.
 Requested convergence on RMS density matrix=1.00D-08 within 128 cycles.
 Requested convergence on MAX density matrix=1.00D-06.
 Requested convergence on             energy=1.00D-06.
 No special actions if energy rises.
 Keep R1 ints in memory in canonical form, NReq=5138753.
 SCF Done:  E(RHF) =  -323.208933830     A.U. after   10 cycles
             Convg  =    0.1667D-08             -V/T =  2.0026
 Range of M.O.s used for correlation:     1    76
 NBasis=    76 NAE=    16 NBE=    16 NFC=     0 NFV=     0
 NROrb=     76 NOA=    16 NOB=    16 NVA=    60 NVB=    60

 **** Warning!!: The largest alpha MO coefficient is  0.11270144D+02

          Differentiating once with respect to electric field.
                with respect to dipole field.
          Electric field/nuclear overlap derivatives assumed to be zero.
          Keep R1 ints in memory in canonical form, NReq=5102870.
          There are     3 degrees of freedom in the 1st order CPHF.  IDoFFX=0.
      3 vectors produced by pass  0 Test12= 3.20D-14 3.33D-08 XBig12= 2.04D+00 6.75D-01.
 AX will form     3 AO Fock derivatives at one time.
      3 vectors produced by pass  1 Test12= 3.20D-14 3.33D-08 XBig12= 1.17D-01 7.33D-02.
      3 vectors produced by pass  2 Test12= 3.20D-14 3.33D-08 XBig12= 1.26D-02 2.87D-02.
      3 vectors produced by pass  3 Test12= 3.20D-14 3.33D-08 XBig12= 3.41D-04 5.02D-03.
      3 vectors produced by pass  4 Test12= 3.20D-14 3.33D-08 XBig12= 5.03D-06 6.73D-04.
      3 vectors produced by pass  5 Test12= 3.20D-14 3.33D-08 XBig12= 1.05D-07 7.84D-05.
      3 vectors produced by pass  6 Test12= 3.20D-14 3.33D-08 XBig12= 2.67D-09 1.05D-05.
      2 vectors produced by pass  7 Test12= 3.20D-14 3.33D-08 XBig12= 2.13D-11 1.53D-06.
      2 vectors produced by pass  8 Test12= 3.20D-14 3.33D-08 XBig12= 4.13D-13 3.03D-07.
 Inverted reduced A of dimension    25 with in-core refinement.
 End of Minotr Frequency-dependent properties file   721 does not exist.
 End of Minotr Frequency-dependent properties file   722 does not exist.
 Symmetrizing basis deriv contribution to polar:
 IMax=3 JMax=2 DiffMx= 0.00D+00
 G2DrvN: will do     5 centers at a time, making    1 passes doing MaxLOS=2.
 Calling FoFCou, ICntrl=  3107 FMM=F I1Cent=   0 AccDes= 0.00D+00.
 FoFDir/FoFCou used for L=0 through L=2.
 End of G2Drv Frequency-dependent properties file   721 does not exist.
 End of G2Drv Frequency-dependent properties file   722 does not exist.
          IDoAtm=1111
          Differentiating once with respect to electric field.
                with respect to dipole field.
          Differentiating once with respect to nuclear coordinates.
          Keep R1 ints in memory in canonical form, NReq=5102918.
          There are     9 degrees of freedom in the 1st order CPHF.  IDoFFX=4.
 Will reuse    3 saved solutions.
      6 vectors produced by pass  0 Test12= 1.07D-14 1.11D-08 XBig12= 6.58D-02 8.47D-02.
 AX will form     6 AO Fock derivatives at one time.
      6 vectors produced by pass  1 Test12= 1.07D-14 1.11D-08 XBig12= 5.01D-03 3.59D-02.
      6 vectors produced by pass  2 Test12= 1.07D-14 1.11D-08 XBig12= 3.73D-04 7.81D-03.
      6 vectors produced by pass  3 Test12= 1.07D-14 1.11D-08 XBig12= 1.04D-05 1.48D-03.
      6 vectors produced by pass  4 Test12= 1.07D-14 1.11D-08 XBig12= 2.53D-07 1.26D-04.
      6 vectors produced by pass  5 Test12= 1.07D-14 1.11D-08 XBig12= 3.71D-09 1.44D-05.
      6 vectors produced by pass  6 Test12= 1.07D-14 1.11D-08 XBig12= 8.28D-11 2.09D-06.
      3 vectors produced by pass  7 Test12= 1.07D-14 1.11D-08 XBig12= 1.53D-12 3.27D-07.
      2 vectors produced by pass  8 Test12= 1.07D-14 1.11D-08 XBig12= 2.33D-14 3.61D-08.
 Inverted reduced A of dimension    47 with in-core refinement.
 Isotropic polarizability for W=    0.000000       11.58 Bohr**3.
 End of Minotr Frequency-dependent properties file   721 does not exist.
 End of Minotr Frequency-dependent properties file   722 does not exist.

 **********************************************************************

            Population analysis using the SCF density.

 **********************************************************************

 Orbital symmetries:
       Occupied  (E') (E') (A1') (A1') (A1') (E') (E') (A1') (E')
                 (E') (A2") (E') (E') (E") (E") (A2')
       Virtual   (A1') (A2") (E') (E') (A2") (A1') (E') (E') (A1')
                 (E") (E") (E') (E') (A2") (A2') (A1') (E') (E')
                 (E') (E') (A2") (E') (E') (A1') (E") (E") (A1')
                 (E') (E') (A1') (E") (E") (A2") (A2') (E') (E')
                 (E') (E') (E") (E") (A1") (A1') (E') (E') (E')
                 (E') (A2') (A1') (A2") (E") (E") (E') (E') (E')
                 (E') (A1') (A1') (A1') (E') (E')
 The electronic state is 1-A1'.
 Alpha  occ. eigenvalues --  -26.35759 -26.35759 -26.35757  -7.78894  -1.69690
 Alpha  occ. eigenvalues --   -1.65260  -1.65260  -0.86347  -0.81969  -0.81969
 Alpha  occ. eigenvalues --   -0.76911  -0.70481  -0.70481  -0.69062  -0.69062
 Alpha  occ. eigenvalues --   -0.66452
 Alpha virt. eigenvalues --    0.05149   0.06895   0.07979   0.07979   0.21396
 Alpha virt. eigenvalues --    0.29476   0.29730   0.29730   0.34280   0.34328
 Alpha virt. eigenvalues --    0.34328   0.36817   0.36817   0.37274   0.42634
 Alpha virt. eigenvalues --    0.48461   0.48656   0.48656   0.63283   0.63283
 Alpha virt. eigenvalues --    0.73315   0.93078   0.93078   1.08486   1.41251
 Alpha virt. eigenvalues --    1.41251   1.74128   1.76617   1.76617   1.78416
 Alpha virt. eigenvalues --    1.80476   1.80476   1.85413   1.89365   1.91204
 Alpha virt. eigenvalues --    1.91204   1.97559   1.97559   2.08683   2.08683
 Alpha virt. eigenvalues --    2.09384   2.14565   2.15980   2.15980   2.18970
 Alpha virt. eigenvalues --    2.18970   2.24713   2.32601   2.45163   2.81145
 Alpha virt. eigenvalues --    2.81145   3.30091   3.30091   3.50726   3.50726
 Alpha virt. eigenvalues --    3.79881   4.15626   5.41055   5.53910   5.53910
          Condensed to atoms (all electrons):
              1          2          3          4
     1  B    2.619125   0.300356   0.300356   0.300356
     2  F    0.300356   9.321834  -0.064461  -0.064461
     3  F    0.300356  -0.064461   9.321834  -0.064461
     4  F    0.300356  -0.064461  -0.064461   9.321834
 Mulliken atomic charges:
              1
     1  B    1.479806
     2  F   -0.493269
     3  F   -0.493269
     4  F   -0.493269
 Sum of Mulliken atomic charges =   0.00000
 Mulliken charges with hydrogens summed into heavy atoms:
              1
     1  B    1.479806
     2  F   -0.493269
     3  F   -0.493269
     4  F   -0.493269
 Sum of Mulliken charges with hydrogens summed into heavy atoms =   0.00000
 APT atomic charges:
              1
     1  B    1.932536
     2  F   -0.644179
     3  F   -0.644179
     4  F   -0.644179
 Sum of APT charges=   0.00000
 APT Atomic charges with hydrogens summed into heavy atoms:
              1
     1  B    1.932536
     2  F   -0.644179
     3  F   -0.644179
     4  F   -0.644179
 Sum of APT charges=   0.00000
 Electronic spatial extent (au):  <R**2>=            209.6176
 Charge=              0.0000 electrons
 Dipole moment (field-independent basis, Debye):
    X=              0.0000    Y=              0.0000    Z=              0.0000  Tot=              0.0000
 Quadrupole moment (field-independent basis, Debye-Ang):
   XX=            -22.2694   YY=            -22.2694   ZZ=            -17.4758
   XY=              0.0000   XZ=              0.0000   YZ=              0.0000
 Traceless Quadrupole moment (field-independent basis, Debye-Ang):
   XX=             -1.5979   YY=             -1.5979   ZZ=              3.1957
   XY=              0.0000   XZ=              0.0000   YZ=              0.0000
 Octapole moment (field-independent basis, Debye-Ang**2):
  XXX=              0.0000  YYY=             -2.2005  ZZZ=              0.0000  XYY=              0.0000
  XXY=              2.2005  XXZ=              0.0000  XZZ=              0.0000  YZZ=              0.0000
  YYZ=              0.0000  XYZ=              0.0000
 Hexadecapole moment (field-independent basis, Debye-Ang**3):
 XXXX=            -91.7024 YYYY=            -91.7024 ZZZZ=            -11.0773 XXXY=              0.0000
 XXXZ=              0.0000 YYYX=              0.0000 YYYZ=              0.0000 ZZZX=              0.0000
 ZZZY=              0.0000 XXYY=            -30.5675 XXZZ=            -16.7691 YYZZ=            -16.7691
 XXYZ=              0.0000 YYXZ=              0.0000 ZZXY=              0.0000
 N-N= 1.118685946357D+02 E-N=-9.953319723403D+02  KE= 3.223591696484D+02
 Symmetry A1   KE= 2.035491821769D+02
 Symmetry A2   KE= 6.289925705996D+00
 Symmetry B1   KE= 1.009563801665D+02
 Symmetry B2   KE= 1.156368159893D+01
  Exact polarizability:  12.748   0.000  12.748   0.000   0.000   9.246
 Approx polarizability:  10.702   0.000  10.702   0.000   0.000   8.563
 Calling FoFJK, ICntrl=    100127 FMM=F ISym2X=1 I1Cent= 0 IOpClX= 0 NMat=1 NMatS=1 NMatT=0.
 Full mass-weighted force constant matrix:
 Low frequencies ---   -0.0031   -0.0011   -0.0009    2.3318    2.3351    2.3351
 Low frequencies ---  503.6583  503.6583  741.0526
 Diagonal vibrational polarizability:
        8.0400341       8.0400344       8.1370316
 Diagonal vibrational hyperpolarizability:
        0.0000000       6.1438890       0.0000000
 Harmonic frequencies (cm**-1), IR intensities (KM/Mole), Raman scattering
 activities (A**4/AMU), depolarization ratios for plane and unpolarized
 incident light, reduced masses (AMU), force constants (mDyne/A),
 and normal coordinates:
                     1                      2                      3
                    E'                     E'                     A2"
 Frequencies --   503.6583               503.6583               741.0526
 Red. masses --    17.8839                17.8839                11.8135
 Frc consts  --     2.6729                 2.6729                 3.8223
 IR Inten    --    18.5402                18.5402               166.0470
 Raman Activ --     0.5320                 0.5320                 0.0000
 Depolar (P) --     0.7500                 0.7500                 0.0000
 Depolar (U) --     0.8571                 0.8571                 0.0000
  Atom  AN      X      Y      Z        X      Y      Z        X      Y      Z
     1   5    -0.37   0.00   0.00     0.00   0.37   0.00     0.00   0.00   0.95
     2   9     0.60   0.00   0.00     0.00   0.46   0.00     0.00   0.00  -0.18
     3   9    -0.19  -0.46   0.00     0.46  -0.34   0.00     0.00   0.00  -0.18
     4   9    -0.19   0.46   0.00    -0.46  -0.34   0.00     0.00   0.00  -0.18
                     4                      5                      6
                    A1'                    E'                     E'
 Frequencies --   935.8126              1544.0670              1544.0670
 Red. masses --    18.9984                12.2898                12.2898
 Frc consts  --     9.8027                17.2634                17.2634
 IR Inten    --     0.0000               538.0396               538.0396
 Raman Activ --     2.6001                 0.0950                 0.0950
 Depolar (P) --     0.0479                 0.7500                 0.7500
 Depolar (U) --     0.0914                 0.8571                 0.8571
  Atom  AN      X      Y      Z        X      Y      Z        X      Y      Z
     1   5     0.00   0.00   0.00     0.92   0.00   0.00     0.00   0.92   0.00
     2   9     0.00   0.58   0.00    -0.03   0.00   0.00     0.00  -0.33   0.00
     3   9    -0.50  -0.29   0.00    -0.25  -0.13   0.00    -0.13  -0.10   0.00
     4   9     0.50  -0.29   0.00    -0.25   0.13   0.00     0.13  -0.10   0.00

 -------------------
 - Thermochemistry -
 -------------------
 Temperature   298.150 Kelvin.  Pressure   1.00000 Atm.
 Atom     1 has atomic number  5 and mass  11.00931
 Atom     2 has atomic number  9 and mass  18.99840
 Atom     3 has atomic number  9 and mass  18.99840
 Atom     4 has atomic number  9 and mass  18.99840
 Molecular mass:    68.00452 amu.
 Principal axes and moments of inertia in atomic units:
                           1         2         3
     Eigenvalues --   172.58067 172.58067 345.16135
           X            0.86491   0.50193   0.00000
           Y           -0.50193   0.86491   0.00000
           Z            0.00000   0.00000   1.00000
 This molecule is an oblate symmetric top.
 Rotational symmetry number  6.
 Rotational temperatures (Kelvin)      0.50187     0.50187     0.25094
 Rotational constants (GHZ):          10.45738    10.45738     5.22869
 Zero-point vibrational energy      34526.1 (Joules/Mol)
                                    8.25194 (Kcal/Mol)
 Warning -- explicit consideration of   2 degrees of freedom as
           vibrations may cause significant error
 Vibrational temperatures:    724.65   724.65  1066.21  1346.42  2221.57
          (Kelvin)           2221.57
 
 Zero-point correction=                           0.013150 (Hartree/Particle)
 Thermal correction to Energy=                    0.016578
 Thermal correction to Enthalpy=                  0.017522
 Thermal correction to Gibbs Free Energy=        -0.011248
 Sum of electronic and zero-point Energies=           -323.195784
 Sum of electronic and thermal Energies=              -323.192356
 Sum of electronic and thermal Enthalpies=            -323.191411
 Sum of electronic and thermal Free Energies=         -323.220182
 
                     E (Thermal)             CV                S
                      KCal/Mol        Cal/Mol-Kelvin    Cal/Mol-Kelvin
 Total                   10.403              9.779             60.553
 Electronic               0.000              0.000              0.000
 Translational            0.889              2.981             38.569
 Rotational               0.889              2.981             20.285
 Vibrational              8.626              3.818              1.700
 Vibration     1          0.859              1.242              0.649
 Vibration     2          0.859              1.242              0.649
                       Q            Log10(Q)             Ln(Q)
 Total Bot       0.149233D+06          5.173864         11.913263
 Total V=0       0.166944D+12         11.222571         25.840924
 Vib (Bot)       0.111919D-05         -5.951096        -13.702905
 Vib (Bot)    1  0.325258D+00         -0.487772         -1.123137
 Vib (Bot)    2  0.325258D+00         -0.487772         -1.123137
 Vib (V=0)       0.125202D+01          0.097610          0.224756
 Vib (V=0)    1  0.109648D+01          0.040002          0.092108
 Vib (V=0)    2  0.109648D+01          0.040002          0.092108
 Electronic      0.100000D+01          0.000000          0.000000
 Translational   0.220425D+08          7.343262         16.908485
 Rotational      0.604921D+04          3.781698          8.707682
 ***** Axes restored to original set *****
 -------------------------------------------------------------------
 Center     Atomic                   Forces (Hartrees/Bohr)
 Number     Number              X              Y              Z
 -------------------------------------------------------------------
      1        5           0.000000000    0.000000000    0.000000000
      2        9           0.000000000   -0.000009675    0.000000000
      3        9          -0.000008379    0.000004838    0.000000000
      4        9           0.000008379    0.000004838    0.000000000
 -------------------------------------------------------------------
 Cartesian Forces:  Max     0.000009675 RMS     0.000004838

 GradGradGradGradGradGradGradGradGradGradGradGradGradGradGradGradGradGrad
 Berny optimization.
 Search for a local minimum.
 Step number   1 out of a maximum of    2
 All quantities printed in internal units (Hartrees-Bohrs-Radians)
 Second derivative matrix not updated -- analytic derivatives used.
 The second derivative matrix:
                          X1        Y1        Z1        X2        Y2
           X1           0.75627
           Y1           0.00000   0.75627
           Z1           0.00000   0.00000   0.19176
           X2          -0.06519   0.00000   0.00000   0.07254
           Y2           0.00000  -0.43899   0.00000   0.00000   0.53162
           Z2           0.00000   0.00000  -0.06392   0.00000   0.00000
           X3          -0.34554   0.16186   0.00000  -0.00368   0.02985
           Y3           0.16186  -0.15864   0.00000   0.04400  -0.04631
           Z3           0.00000   0.00000  -0.06392   0.00000   0.00000
           X4          -0.34554  -0.16186   0.00000  -0.00368  -0.02985
           Y4          -0.16186  -0.15864   0.00000  -0.04400  -0.04631
           Z4           0.00000   0.00000  -0.06392   0.00000   0.00000
                          Z2        X3        Y3        Z3        X4
           Z2           0.02131
           X3           0.00000   0.41685
           Y3           0.00000  -0.19879   0.18731
           Z3           0.02130   0.00000   0.00000   0.02131
           X4           0.00000  -0.06763  -0.00708   0.00000   0.41685
           Y4           0.00000   0.00708   0.01764   0.00000   0.19879
           Z4           0.02130   0.00000   0.00000   0.02130   0.00000
                          Y4        Z4
           Y4           0.18731
           Z4           0.00000   0.02131
     Eigenvalues ---    0.17182   0.17182   0.25218   0.62963   1.16208
     Eigenvalues ---    1.16208
 Angle between quadratic step and forces=   0.00 degrees.
 ClnCor:  largest displacement from symmetrization is 1.42D-12 for atom     4.
 Linear search not attempted -- first point.
 ClnCor:  largest displacement from symmetrization is 4.97D-16 for atom     3.
 TrRot=  0.000000  0.000000  0.000000  0.000000  0.000000  0.000000
 Variable       Old X    -DE/DX   Delta X   Delta X   Delta X     New X
                                 (Linear)    (Quad)   (Total)
    X1        0.00000   0.00000   0.00000   0.00000   0.00000   0.00000
    Y1        0.00000   0.00000   0.00000   0.00000   0.00000   0.00000
    Z1        0.00000   0.00000   0.00000   0.00000   0.00000   0.00000
    X2        0.00000   0.00000   0.00000   0.00000   0.00000   0.00000
    Y2        2.46089  -0.00001   0.00000  -0.00002  -0.00002   2.46087
    Z2        0.00000   0.00000   0.00000   0.00000   0.00000   0.00000
    X3        2.13119  -0.00001   0.00000  -0.00001  -0.00001   2.13118
    Y3       -1.23044   0.00000   0.00000   0.00001   0.00001  -1.23044
    Z3        0.00000   0.00000   0.00000   0.00000   0.00000   0.00000
    X4       -2.13119   0.00001   0.00000   0.00001   0.00001  -2.13118
    Y4       -1.23044   0.00000   0.00000   0.00001   0.00001  -1.23044
    Z4        0.00000   0.00000   0.00000   0.00000   0.00000   0.00000
         Item               Value     Threshold  Converged?
 Maximum Force            0.000010     0.000450     YES
 RMS     Force            0.000005     0.000300     YES
 Maximum Displacement     0.000015     0.001800     YES
 RMS     Displacement     0.000008     0.001200     YES
 Predicted change in Energy=-2.230170D-10
 Optimization completed.
    -- Stationary point found.
 GradGradGradGradGradGradGradGradGradGradGradGradGradGradGradGradGradGrad

 1|1|UNPC-LAPTOP-7BBBEH3F|Freq|RHF|6-31++G(d,p)|B1F3|SAIF_|30-Sep-2025|
 0||# freq hf/6-31++g(d,p) geom=connectivity||Title Card Required||0,1|
 B,0.,0.,0.|F,-0.000000059,1.302246,0.|F,1.1277781475,-0.6511229489,0.|
 F,-1.1277780885,-0.6511230511,0.||Version=IA32W-G09RevA.02|State=1-A1'
 |HF=-323.2089338|RMSD=1.667e-009|RMSF=4.838e-006|ZeroPoint=0.0131503|T
 hermal=0.0165782|Dipole=0.,0.,0.|DipoleDeriv=2.2719885,0.,0.,0.,2.2719
 885,0.,0.,0.,1.2536321,-0.4876584,0.,0.,0.,-1.0270006,0.,0.,0.,-0.4178
 774,-0.892165,0.233542,0.,0.233542,-0.6224939,0.,0.,0.,-0.4178774,-0.8
 92165,-0.233542,0.,-0.233542,-0.622494,0.,0.,0.,-0.4178774|Polar=12.74
 79936,0.,12.7479936,0.,0.,9.2456333|PolarDeriv=0.,0.138341,0.,0.,0.,0.
 ,0.1383415,0.,-0.1383416,0.,0.,0.0000002,0.,0.,0.,0.,0.,0.,-0.0000002,
 1.5024737,0.,0.,0.,0.,1.0431844,0.,4.2325872,0.,0.,0.8493742,0.,0.,0.,
 0.,0.9488068,0.,3.6255924,-0.8204076,0.9433599,0.,0.,0.7355797,-0.5907
 629,1.3411162,-2.0471227,0.,0.,-0.4246871,0.,0.,0.,0.8216908,-0.474403
 4,0.,-3.6255922,-0.8204077,-0.9433599,0.,0.,-0.7355796,-0.590763,-1.34
 11161,-2.047123,0.,0.,-0.4246871,0.,0.,0.,-0.8216908,-0.4744034,0.|Hyp
 erPolar=-0.0000007,5.3823039,0.0000007,-5.3823039,0.,0.,0.,0.,0.,0.|PG
 =D03H [O(B1),3C2(F1)]|NImag=0||0.75627024,0.,0.75627025,0.,0.,0.191756
 48,-0.06518621,0.00000002,0.,0.07254162,0.00000002,-0.43899395,0.,-0.0
 0000002,0.53162253,0.,0.,-0.06391883,0.,0.,0.02130889,-0.34554203,0.16
 186348,0.,-0.00367770,0.02984579,0.,0.41685232,0.16186348,-0.15863813,
 0.,0.04400299,-0.04631430,0.,-0.19878786,0.18731183,0.,0.,-0.06391883,
 0.,0.,0.02130497,0.,0.,0.02130889,-0.34554200,-0.16186350,0.,-0.003677
 69,-0.02984579,0.,-0.06763261,-0.00707860,0.,0.41685229,-0.16186350,-0
 .15863816,0.,-0.04400298,-0.04631431,0.,0.00707859,0.01764061,0.,0.198
 78788,0.18731186,0.,0.,-0.06391883,0.,0.,0.02130497,0.,0.,0.02130497,0
 .,0.,0.02130889||0.,0.,0.,0.,0.00000968,0.,0.00000838,-0.00000484,0.,-
 0.00000838,-0.00000484,0.|||@


 HOW IS IT THAT THE SKY FEEDS THE STARS?

                           -- LUCRETIUS
 Job cpu time:  0 days  0 hours  0 minutes  8.0 seconds.
 File lengths (MBytes):  RWF=      6 Int=      0 D2E=      0 Chk=      1 Scr=      1
 Normal termination of Gaussian 09 at Tue Sep 30 07:01:13 2025.
