 Entering Link 1 = C:\G09W\l1.exe PID=     45976.
  
 Copyright (c) 1988,1990,1992,1993,1995,1998,2003,2009, Gaussian, Inc.
                  All Rights Reserved.
  
 This is part of the Gaussian(R) 09 program.  It is based on
 the Gaussian(R) 03 system (copyright 2003, Gaussian, Inc.),
 the Gaussian(R) 98 system (copyright 1998, Gaussian, Inc.),
 the Gaussian(R) 94 system (copyright 1995, Gaussian, Inc.),
 the Gaussian 92(TM) system (copyright 1992, Gaussian, Inc.),
 the Gaussian 90(TM) system (copyright 1990, Gaussian, Inc.),
 the Gaussian 88(TM) system (copyright 1988, Gaussian, Inc.),
 the Gaussian 86(TM) system (copyright 1986, Carnegie Mellon
 University), and the Gaussian 82(TM) system (copyright 1983,
 Carnegie Mellon University). Gaussian is a federally registered
 trademark of Gaussian, Inc.
  
 This software contains proprietary and confidential information,
 including trade secrets, belonging to Gaussian, Inc.
  
 This software is provided under written license and may be
 used, copied, transmitted, or stored only in accord with that
 written license.
  
 The following legend is applicable only to US Government
 contracts under FAR:
  
                    RESTRICTED RIGHTS LEGEND
  
 Use, reproduction and disclosure by the US Government is
 subject to restrictions as set forth in subparagraphs (a)
 and (c) of the Commercial Computer Software - Restricted
 Rights clause in FAR 52.227-19.
  
 Gaussian, Inc.
 340 Quinnipiac St., Bldg. 40, Wallingford CT 06492
  
  
 ---------------------------------------------------------------
 Warning -- This program may not be used in any manner that
 competes with the business of Gaussian, Inc. or will provide
 assistance to any competitor of Gaussian, Inc.  The licensee
 of this program is prohibited from giving any competitor of
 Gaussian, Inc. access to this program.  By using this program,
 the user acknowledges that Gaussian, Inc. is engaged in the
 business of creating and licensing software in the field of
 computational chemistry and represents and warrants to the
 licensee that it is not a competitor of Gaussian, Inc. and that
 it will not use this program in any manner prohibited above.
 ---------------------------------------------------------------
  

 Cite this work as:
 Gaussian 09, Revision A.02,
 M. J. Frisch, G. W. Trucks, H. B. Schlegel, G. E. Scuseria, 
 M. A. Robb, J. R. Cheeseman, G. Scalmani, V. Barone, B. Mennucci, 
 G. A. Petersson, H. Nakatsuji, M. Caricato, X. Li, H. P. Hratchian, 
 A. F. Izmaylov, J. Bloino, G. Zheng, J. L. Sonnenberg, M. Hada, 
 M. Ehara, K. Toyota, R. Fukuda, J. Hasegawa, M. Ishida, T. Nakajima, 
 Y. Honda, O. Kitao, H. Nakai, T. Vreven, J. A. Montgomery, Jr., 
 J. E. Peralta, F. Ogliaro, M. Bearpark, J. J. Heyd, E. Brothers, 
 K. N. Kudin, V. N. Staroverov, R. Kobayashi, J. Normand, 
 K. Raghavachari, A. Rendell, J. C. Burant, S. S. Iyengar, J. Tomasi, 
 M. Cossi, N. Rega, J. M. Millam, M. Klene, J. E. Knox, J. B. Cross, 
 V. Bakken, C. Adamo, J. Jaramillo, R. Gomperts, R. E. Stratmann, 
 O. Yazyev, A. J. Austin, R. Cammi, C. Pomelli, J. W. Ochterski, 
 R. L. Martin, K. Morokuma, V. G. Zakrzewski, G. A. Voth, 
 P. Salvador, J. J. Dannenberg, S. Dapprich, A. D. Daniels, 
 O. Farkas, J. B. Foresman, J. V. Ortiz, J. Cioslowski, 
 and D. J. Fox, Gaussian, Inc., Wallingford CT, 2009.
 
 ******************************************
 Gaussian 09:  IA32W-G09RevA.02 11-Jun-2009
                30-Sep-2025 
 ******************************************
 %chk=C:\Users\saif_\Desktop\downs\GV\prepheral\BF3(freq).chk
 -------------------------------------
 # freq hf/6-31+g(d) geom=connectivity
 -------------------------------------
 1/10=4,30=1,38=1,57=2/1,3;
 2/12=2,17=6,18=5,40=1/2;
 3/5=1,6=6,7=11,11=9,16=1,25=1,30=1,71=2/1,2,3;
 4//1;
 5/5=2,38=5,98=1/2;
 8/6=4,10=90,11=11/1;
 10/13=10,15=4/2;
 11/6=3,8=1,9=11,15=111,16=1/1,2,10;
 10/6=1/2;
 6/7=2,8=2,9=2,10=2,18=1,28=1/1;
 7/8=1,10=1,25=1/1,2,3,16;
 1/10=4,30=1/3;
 99//99;
 -------------------
 Title Card Required
 -------------------
 Symbolic Z-matrix:
 Charge =  0 Multiplicity = 1
 B                    -3.48399  -0.14124   0. 
 F                    -4.21399   1.12315   0. 
 F                    -4.21399  -1.40564   0. 
 F                    -2.02399  -0.14124   0. 
 

 GradGradGradGradGradGradGradGradGradGradGradGradGradGradGradGradGradGrad
 Berny optimization.
 Initialization pass.
 Trust Radius=3.00D-01 FncErr=1.00D-07 GrdErr=1.00D-07
 Number of steps in this run=   2 maximum allowed number of steps=   2.
 GradGradGradGradGradGradGradGradGradGradGradGradGradGradGradGradGradGrad

                          Input orientation:                          
 ---------------------------------------------------------------------
 Center     Atomic      Atomic             Coordinates (Angstroms)
 Number     Number       Type             X           Y           Z
 ---------------------------------------------------------------------
      1          5           0       -3.483992   -0.141243    0.000000
      2          9           0       -4.213992    1.123154    0.000000
      3          9           0       -4.213992   -1.405640    0.000000
      4          9           0       -2.023992   -0.141243    0.000000
 ---------------------------------------------------------------------
                    Distance matrix (angstroms):
                    1          2          3          4
     1  B    0.000000
     2  F    1.460000   0.000000
     3  F    1.460000   2.528794   0.000000
     4  F    1.460000   2.528794   2.528794   0.000000
 Stoichiometry    BF3
 Framework group  D3H[O(B),3C2(F)]
 Deg. of freedom     1
 Full point group                 D3H     NOp  12
 Largest Abelian subgroup         C2V     NOp   4
 Largest concise Abelian subgroup C2      NOp   2
                         Standard orientation:                         
 ---------------------------------------------------------------------
 Center     Atomic      Atomic             Coordinates (Angstroms)
 Number     Number       Type             X           Y           Z
 ---------------------------------------------------------------------
      1          5           0        0.000000    0.000000    0.000000
      2          9           0        0.000000    1.460000    0.000000
      3          9           0       -1.264397   -0.730000    0.000000
      4          9           0        1.264397   -0.730000    0.000000
 ---------------------------------------------------------------------
 Rotational constants (GHZ):      8.3196130      8.3196130      4.1598065
 Standard basis: 6-31+G(d) (6D, 7F)
 There are    34 symmetry adapted basis functions of A1  symmetry.
 There are     7 symmetry adapted basis functions of A2  symmetry.
 There are    22 symmetry adapted basis functions of B1  symmetry.
 There are    13 symmetry adapted basis functions of B2  symmetry.
 Integral buffers will be    262144 words long.
 Raffenetti 1 integral format.
 Two-electron integral symmetry is turned on.
    76 basis functions,   128 primitive gaussians,    76 cartesian basis functions
    16 alpha electrons       16 beta electrons
       nuclear repulsion energy        99.7811163519 Hartrees.
 NAtoms=    4 NActive=    4 NUniq=    2 SFac= 3.00D+00 NAtFMM=   80 NAOKFM=F Big=F
 One-electron integrals computed using PRISM.
 NBasis=    76 RedAO= T  NBF=    34     7    22    13
 NBsUse=    76 1.00D-06 NBFU=    34     7    22    13
 Harris functional with IExCor=  205 diagonalized for initial guess.
 ExpMin= 3.15D-02 ExpMax= 7.00D+03 ExpMxC= 1.05D+03 IAcc=3 IRadAn=         0 AccDes= 0.00D+00
 HarFok:  IExCor=  205 AccDes= 0.00D+00 IRadAn=         0 IDoV= 1
 ScaDFX=  1.000000  1.000000  1.000000  1.000000
 FoFCou: FMM=F IPFlag=           0 FMFlag=      100000 FMFlg1=           0
         NFxFlg=           0 DoJE=T BraDBF=F KetDBF=T FulRan=T
         Omega=  0.000000  0.000000  1.000000  0.000000  0.000000 ICntrl=     500 IOpCl=  0
         NMat0=    1 NMatS0=    1 NMatT0=    0 NMatD0=    1 NMtDS0=    0 NMtDT0=    0
         I1Cent=           4 NGrid=           0.
 Petite list used in FoFCou.
 Initial guess orbital symmetries:
       Occupied  (E') (E') (A1') (A1') (A1') (E') (E') (A1') (E')
                 (E') (A2") (E') (E') (E") (E") (A2')
       Virtual   (A2") (A1') (E') (E') (A2") (A1') (E') (E') (E')
                 (E') (E") (E") (A1') (A1') (A2") (E') (E') (A2')
                 (E') (E') (A2") (E') (E') (A1') (E") (E") (A2')
                 (E") (E") (E') (E') (A1') (A2") (E') (E') (E')
                 (E') (A1') (A1") (E") (E") (E') (E') (A2') (A1')
                 (E') (E') (A1') (A2") (E") (E") (E') (E') (E')
                 (E') (A1') (A1') (E') (E') (A1')
 The electronic state of the initial guess is 1-A1'.
 Requested convergence on RMS density matrix=1.00D-08 within 128 cycles.
 Requested convergence on MAX density matrix=1.00D-06.
 Requested convergence on             energy=1.00D-06.
 No special actions if energy rises.
 Keep R1 ints in memory in canonical form, NReq=5138753.
 SCF Done:  E(RHF) =  -323.146745117     A.U. after   10 cycles
             Convg  =    0.4301D-08             -V/T =  2.0058
 Range of M.O.s used for correlation:     1    76
 NBasis=    76 NAE=    16 NBE=    16 NFC=     0 NFV=     0
 NROrb=     76 NOA=    16 NOB=    16 NVA=    60 NVB=    60
          Differentiating once with respect to electric field.
                with respect to dipole field.
          Electric field/nuclear overlap derivatives assumed to be zero.
          Keep R1 ints in memory in canonical form, NReq=5102870.
          There are     3 degrees of freedom in the 1st order CPHF.  IDoFFX=0.
      3 vectors produced by pass  0 Test12= 3.20D-14 3.33D-08 XBig12= 2.79D+00 6.83D-01.
 AX will form     3 AO Fock derivatives at one time.
      3 vectors produced by pass  1 Test12= 3.20D-14 3.33D-08 XBig12= 2.03D-01 9.57D-02.
      3 vectors produced by pass  2 Test12= 3.20D-14 3.33D-08 XBig12= 2.54D-02 6.03D-02.
      3 vectors produced by pass  3 Test12= 3.20D-14 3.33D-08 XBig12= 1.15D-03 1.18D-02.
      3 vectors produced by pass  4 Test12= 3.20D-14 3.33D-08 XBig12= 2.25D-05 1.31D-03.
      3 vectors produced by pass  5 Test12= 3.20D-14 3.33D-08 XBig12= 3.27D-07 1.84D-04.
      3 vectors produced by pass  6 Test12= 3.20D-14 3.33D-08 XBig12= 9.98D-09 2.82D-05.
      3 vectors produced by pass  7 Test12= 3.20D-14 3.33D-08 XBig12= 3.23D-10 4.65D-06.
      2 vectors produced by pass  8 Test12= 3.20D-14 3.33D-08 XBig12= 2.33D-12 3.13D-07.
      2 vectors produced by pass  9 Test12= 3.20D-14 3.33D-08 XBig12= 2.12D-14 5.01D-08.
 Inverted reduced A of dimension    28 with in-core refinement.
 End of Minotr Frequency-dependent properties file   721 does not exist.
 End of Minotr Frequency-dependent properties file   722 does not exist.
 Symmetrizing basis deriv contribution to polar:
 IMax=3 JMax=2 DiffMx= 0.00D+00
 G2DrvN: will do     5 centers at a time, making    1 passes doing MaxLOS=2.
 Calling FoFCou, ICntrl=  3107 FMM=F I1Cent=   0 AccDes= 0.00D+00.
 FoFDir/FoFCou used for L=0 through L=2.
 End of G2Drv Frequency-dependent properties file   721 does not exist.
 End of G2Drv Frequency-dependent properties file   722 does not exist.
          IDoAtm=1111
          Differentiating once with respect to electric field.
                with respect to dipole field.
          Differentiating once with respect to nuclear coordinates.
          Keep R1 ints in memory in canonical form, NReq=5102918.
          There are     9 degrees of freedom in the 1st order CPHF.  IDoFFX=4.
 Will reuse    3 saved solutions.
      6 vectors produced by pass  0 Test12= 1.07D-14 1.11D-08 XBig12= 4.65D-02 6.37D-02.
 AX will form     6 AO Fock derivatives at one time.
      6 vectors produced by pass  1 Test12= 1.07D-14 1.11D-08 XBig12= 5.98D-03 3.58D-02.
      6 vectors produced by pass  2 Test12= 1.07D-14 1.11D-08 XBig12= 5.01D-04 1.12D-02.
      6 vectors produced by pass  3 Test12= 1.07D-14 1.11D-08 XBig12= 1.87D-05 1.38D-03.
      6 vectors produced by pass  4 Test12= 1.07D-14 1.11D-08 XBig12= 4.29D-07 1.49D-04.
      6 vectors produced by pass  5 Test12= 1.07D-14 1.11D-08 XBig12= 5.91D-09 2.12D-05.
      6 vectors produced by pass  6 Test12= 1.07D-14 1.11D-08 XBig12= 1.27D-10 3.53D-06.
      5 vectors produced by pass  7 Test12= 1.07D-14 1.11D-08 XBig12= 2.73D-12 4.45D-07.
      3 vectors produced by pass  8 Test12= 1.07D-14 1.11D-08 XBig12= 4.39D-14 5.14D-08.
 Inverted reduced A of dimension    50 with in-core refinement.
 Isotropic polarizability for W=    0.000000       13.72 Bohr**3.
 End of Minotr Frequency-dependent properties file   721 does not exist.
 End of Minotr Frequency-dependent properties file   722 does not exist.

 **********************************************************************

            Population analysis using the SCF density.

 **********************************************************************

 Orbital symmetries:
       Occupied  (E') (E') (A1') (A1') (A1') (E') (E') (A1') (E')
                 (E') (A2") (E') (E') (E") (E") (A2')
       Virtual   (A1') (A2") (E') (E') (A2") (A1') (E') (E') (A1')
                 (E") (E") (E') (E') (A2") (A1') (A2') (E') (E')
                 (E') (E') (A2") (E') (E') (A1') (E") (E") (E')
                 (E') (A1') (E") (E") (A2') (A1') (A2") (E') (E')
                 (E') (E') (E') (E') (A1") (E") (E") (A1') (A2')
                 (E') (E') (A1') (A2") (E") (E") (E') (E') (E')
                 (E') (A1') (A1') (E') (E') (A1')
 The electronic state is 1-A1'.
 Alpha  occ. eigenvalues --  -26.36735 -26.36735 -26.36733  -7.87739  -1.64626
 Alpha  occ. eigenvalues --   -1.62032  -1.62032  -0.83587  -0.77238  -0.77238
 Alpha  occ. eigenvalues --   -0.73063  -0.68848  -0.68848  -0.68336  -0.68336
 Alpha  occ. eigenvalues --   -0.66913
 Alpha virt. eigenvalues --    0.04386   0.06043   0.08003   0.08003   0.13366
 Alpha virt. eigenvalues --    0.22835   0.29662   0.29662   0.33477   0.33894
 Alpha virt. eigenvalues --    0.33894   0.34716   0.34716   0.38210   0.41529
 Alpha virt. eigenvalues --    0.42035   0.45282   0.45282   0.51892   0.51892
 Alpha virt. eigenvalues --    0.69068   0.85165   0.85165   0.97683   1.32636
 Alpha virt. eigenvalues --    1.32636   1.72473   1.72473   1.73470   1.81389
 Alpha virt. eigenvalues --    1.81389   1.83530   1.83595   1.85824   1.88653
 Alpha virt. eigenvalues --    1.88653   1.90440   1.90440   2.08537   2.08537
 Alpha virt. eigenvalues --    2.08970   2.09300   2.09300   2.12400   2.12678
 Alpha virt. eigenvalues --    2.16288   2.16288   2.19810   2.29587   2.58131
 Alpha virt. eigenvalues --    2.58131   2.84321   2.84321   3.22657   3.22657
 Alpha virt. eigenvalues --    3.32792   4.02752   5.35251   5.35251   5.37881
          Condensed to atoms (all electrons):
              1          2          3          4
     1  B    2.669948   0.283175   0.283175   0.283175
     2  F    0.283175   9.284692  -0.037179  -0.037179
     3  F    0.283175  -0.037179   9.284692  -0.037179
     4  F    0.283175  -0.037179  -0.037179   9.284692
 Mulliken atomic charges:
              1
     1  B    1.480527
     2  F   -0.493509
     3  F   -0.493509
     4  F   -0.493509
 Sum of Mulliken atomic charges =   0.00000
 Mulliken charges with hydrogens summed into heavy atoms:
              1
     1  B    1.480527
     2  F   -0.493509
     3  F   -0.493509
     4  F   -0.493509
 Sum of Mulliken charges with hydrogens summed into heavy atoms =   0.00000
 APT atomic charges:
              1
     1  B    1.913221
     2  F   -0.637740
     3  F   -0.637740
     4  F   -0.637740
 Sum of APT charges=   0.00000
 APT Atomic charges with hydrogens summed into heavy atoms:
              1
     1  B    1.913221
     2  F   -0.637740
     3  F   -0.637740
     4  F   -0.637740
 Sum of APT charges=   0.00000
 Electronic spatial extent (au):  <R**2>=            254.3396
 Charge=              0.0000 electrons
 Dipole moment (field-independent basis, Debye):
    X=              0.0000    Y=              0.0000    Z=              0.0000  Tot=              0.0000
 Quadrupole moment (field-independent basis, Debye-Ang):
   XX=            -23.8577   YY=            -23.8577   ZZ=            -17.9403
   XY=              0.0000   XZ=              0.0000   YZ=              0.0000
 Traceless Quadrupole moment (field-independent basis, Debye-Ang):
   XX=             -1.9725   YY=             -1.9725   ZZ=              3.9449
   XY=              0.0000   XZ=              0.0000   YZ=              0.0000
 Octapole moment (field-independent basis, Debye-Ang**2):
  XXX=              0.0000  YYY=             -2.9959  ZZZ=              0.0000  XYY=              0.0000
  XXY=              2.9959  XXZ=              0.0000  XZZ=              0.0000  YZZ=              0.0000
  YYZ=              0.0000  XYZ=              0.0000
 Hexadecapole moment (field-independent basis, Debye-Ang**3):
 XXXX=           -115.1728 YYYY=           -115.1728 ZZZZ=            -11.8183 XXXY=              0.0000
 XXXZ=              0.0000 YYYX=              0.0000 YYYZ=              0.0000 ZZZX=              0.0000
 ZZZY=              0.0000 XXYY=            -38.3909 XXZZ=            -20.6470 YYZZ=            -20.6470
 XXYZ=              0.0000 YYXZ=              0.0000 ZZXY=              0.0000
 N-N= 9.978111635185D+01 E-N=-9.703445911550D+02  KE= 3.212696771830D+02
 Symmetry A1   KE= 2.028072135345D+02
 Symmetry A2   KE= 6.252463060901D+00
 Symmetry B1   KE= 1.004555498428D+02
 Symmetry B2   KE= 1.175445074471D+01
  Exact polarizability:  15.578   0.000  15.578   0.000   0.000  10.008
 Approx polarizability:  12.900   0.000  12.900   0.000   0.000   8.985
 Calling FoFJK, ICntrl=    100127 FMM=F ISym2X=1 I1Cent= 0 IOpClX= 0 NMat=1 NMatS=1 NMatT=0.
 Full mass-weighted force constant matrix:
 Low frequencies ---    0.0011    0.0021    0.0026  245.1617  245.1617  245.1617
 Low frequencies ---  440.3864  440.3864  560.2257
 Diagonal vibrational polarizability:
       15.8731935      15.8731944       6.9723317
 Diagonal vibrational hyperpolarizability:
        0.0000000     -11.2357560       0.0000000
 Harmonic frequencies (cm**-1), IR intensities (KM/Mole), Raman scattering
 activities (A**4/AMU), depolarization ratios for plane and unpolarized
 incident light, reduced masses (AMU), force constants (mDyne/A),
 and normal coordinates:
                     1                      2                      3
                    E'                     E'                     A1'
 Frequencies --   440.3864               440.3864               560.2257
 Red. masses --    18.8523                18.8523                18.9984
 Frc consts  --     2.1542                 2.1542                 3.5131
 IR Inten    --     0.1414                 0.1414                 0.0000
 Raman Activ --     1.2786                 1.2786                 5.2381
 Depolar (P) --     0.7500                 0.7500                 0.0661
 Depolar (U) --     0.8571                 0.8571                 0.1240
  Atom  AN      X      Y      Z        X      Y      Z        X      Y      Z
     1   5    -0.14   0.00   0.00     0.00   0.14   0.00     0.00   0.00   0.00
     2   9     0.60   0.00   0.00     0.00   0.55   0.00     0.00   0.58   0.00
     3   9    -0.26  -0.49   0.00     0.49  -0.31   0.00    -0.50  -0.29   0.00
     4   9    -0.26   0.50   0.00    -0.50  -0.31   0.00     0.50  -0.29   0.00
                     4                      5                      6
                    A2"                    E'                     E'
 Frequencies --   831.0330               947.6065               947.6065
 Red. masses --    11.8135                11.8707                11.8707
 Frc consts  --     4.8069                 6.2804                 6.2804
 IR Inten    --   178.9293               528.9930               528.9930
 Raman Activ --     0.0000                 0.3414                 0.3414
 Depolar (P) --     0.0000                 0.7500                 0.7500
 Depolar (U) --     0.0000                 0.8571                 0.8571
  Atom  AN      X      Y      Z        X      Y      Z        X      Y      Z
     1   5     0.00   0.00   0.95     0.94   0.00   0.00     0.00   0.94   0.00
     2   9     0.00   0.00  -0.18    -0.13   0.00   0.00     0.00  -0.23   0.00
     3   9     0.00   0.00  -0.18    -0.21  -0.04   0.00    -0.04  -0.16   0.00
     4   9     0.00   0.00  -0.18    -0.21   0.04   0.00     0.04  -0.16   0.00

 -------------------
 - Thermochemistry -
 -------------------
 Temperature   298.150 Kelvin.  Pressure   1.00000 Atm.
 Atom     1 has atomic number  5 and mass  11.00931
 Atom     2 has atomic number  9 and mass  18.99840
 Atom     3 has atomic number  9 and mass  18.99840
 Atom     4 has atomic number  9 and mass  18.99840
 Molecular mass:    68.00452 amu.
 Principal axes and moments of inertia in atomic units:
                           1         2         3
     Eigenvalues --   216.92610 216.92610 433.85220
           X           -0.47186   0.88167   0.00000
           Y            0.88167   0.47186   0.00000
           Z            0.00000   0.00000   1.00000
 This molecule is an oblate symmetric top.
 Rotational symmetry number  6.
 Rotational temperatures (Kelvin)      0.39928     0.39928     0.19964
 Rotational constants (GHZ):           8.31961     8.31961     4.15981
 Zero-point vibrational energy      24925.7 (Joules/Mol)
                                    5.95737 (Kcal/Mol)
 Warning -- explicit consideration of   3 degrees of freedom as
           vibrations may cause significant error
 Vibrational temperatures:    633.62   633.62   806.04  1195.67  1363.39
          (Kelvin)           1363.39
 
 Zero-point correction=                           0.009494 (Hartree/Particle)
 Thermal correction to Energy=                    0.013214
 Thermal correction to Enthalpy=                  0.014158
 Thermal correction to Gibbs Free Energy=        -0.015359
 Sum of electronic and zero-point Energies=           -323.137251
 Sum of electronic and thermal Energies=              -323.133531
 Sum of electronic and thermal Enthalpies=            -323.132587
 Sum of electronic and thermal Free Energies=         -323.162104
 
                     E (Thermal)             CV                S
                      KCal/Mol        Cal/Mol-Kelvin    Cal/Mol-Kelvin
 Total                    8.292             11.321             62.124
 Electronic               0.000              0.000              0.000
 Translational            0.889              2.981             38.569
 Rotational               0.889              2.981             20.966
 Vibrational              6.514              5.359              2.589
 Vibration     1          0.800              1.382              0.825
 Vibration     2          0.800              1.382              0.825
 Vibration     3          0.916              1.117              0.523
                       Q            Log10(Q)             Ln(Q)
 Total Bot       0.116060D+08          7.064684         16.267035
 Total V=0       0.270063D+12         11.431465         26.321920
 Vib (Bot)       0.617652D-04         -4.209256         -9.692170
 Vib (Bot)    1  0.392424D+00         -0.406245         -0.935414
 Vib (Bot)    2  0.392424D+00         -0.406245         -0.935414
 Vib (Bot)    3  0.277367D+00         -0.556945         -1.282413
 Vib (V=0)       0.143723D+01          0.157525          0.362715
 Vib (V=0)    1  0.113561D+01          0.055228          0.127167
 Vib (V=0)    2  0.113561D+01          0.055228          0.127167
 Vib (V=0)    3  0.107178D+01          0.030106          0.069321
 Electronic      0.100000D+01          0.000000          0.000000
 Translational   0.220425D+08          7.343262         16.908485
 Rotational      0.852468D+04          3.930678          9.050720
 ***** Axes restored to original set *****
 -------------------------------------------------------------------
 Center     Atomic                   Forces (Hartrees/Bohr)
 Number     Number              X              Y              Z
 -------------------------------------------------------------------
      1        5           0.000000000    0.000000000    0.000000000
      2        9           0.059612272   -0.103251484    0.000000000
      3        9           0.059612272    0.103251484    0.000000000
      4        9          -0.119224544    0.000000000    0.000000000
 -------------------------------------------------------------------
 Cartesian Forces:  Max     0.119224544 RMS     0.059612272

 GradGradGradGradGradGradGradGradGradGradGradGradGradGradGradGradGradGrad
 Berny optimization.
 Search for a local minimum.
 Step number   1 out of a maximum of    2
 All quantities printed in internal units (Hartrees-Bohrs-Radians)
 Second derivative matrix not updated -- analytic derivatives used.
 The second derivative matrix:
                          X1        Y1        Z1        X2        Y2
           X1           0.31042
           Y1           0.00000   0.31042
           Z1           0.00000   0.00000   0.24115
           X2          -0.09205   0.01978   0.00000   0.10511
           Y2           0.01978  -0.11489   0.00000  -0.03952   0.15075
           Z2           0.00000   0.00000  -0.08038   0.00000   0.00000
           X3          -0.09205  -0.01978   0.00000   0.01056   0.00331
           Y3          -0.01978  -0.11489   0.00000  -0.00331  -0.03502
           Z3           0.00000   0.00000  -0.08038   0.00000   0.00000
           X4          -0.12631   0.00000   0.00000  -0.02362   0.01643
           Y4           0.00000  -0.08063   0.00000   0.02305  -0.00083
           Z4           0.00000   0.00000  -0.08038   0.00000   0.00000
                          Z2        X3        Y3        Z3        X4
           Z2           0.05560
           X3           0.00000   0.10511
           Y3           0.00000   0.03952   0.15075
           Z3           0.01239   0.00000   0.00000   0.05560
           X4           0.00000  -0.02362  -0.01643   0.00000   0.17356
           Y4           0.00000  -0.02305  -0.00083   0.00000   0.00000
           Z4           0.01239   0.00000   0.00000   0.01239   0.00000
                          Y4        Z4
           Y4           0.08230
           Z4           0.00000   0.05560
     Eigenvalues ---    0.13826   0.13826   0.22565   0.31714   0.41586
     Eigenvalues ---    0.41586
 Quadratic step=9.151D-01 exceeds max=3.000D-01 adjusted using Lamda=-4.619D-01.
 Angle between NR and scaled steps=   0.00 degrees.
 Angle between quadratic step and forces=   0.00 degrees.
 ClnCor:  largest displacement from symmetrization is 7.13D-10 for atom     1.
 Linear search not attempted -- first point.
 ClnCor:  largest displacement from symmetrization is 4.74D-16 for atom     4.
 TrRot=  0.000000  0.000000  0.000000  0.000000  0.000000  0.000000
 Variable       Old X    -DE/DX   Delta X   Delta X   Delta X     New X
                                 (Linear)    (Quad)   (Total)
    X1       -6.58379   0.00000   0.00000   0.00000   0.00000  -6.58379
    Y1       -0.26691   0.00000   0.00000   0.00000   0.00000  -0.26691
    Z1        0.00000   0.00000   0.00000   0.00000   0.00000   0.00000
    X2       -7.96329   0.05961   0.00000   0.08670   0.08670  -7.87659
    Y2        2.12245  -0.10325   0.00000  -0.15017  -0.15017   1.97229
    Z2        0.00000   0.00000   0.00000   0.00000   0.00000   0.00000
    X3       -7.96329   0.05961   0.00000   0.08670   0.08670  -7.87659
    Y3       -2.65627   0.10325   0.00000   0.15017   0.15017  -2.50611
    Z3        0.00000   0.00000   0.00000   0.00000   0.00000   0.00000
    X4       -3.82479  -0.11922   0.00000  -0.17340  -0.17340  -3.99819
    Y4       -0.26691   0.00000   0.00000   0.00000   0.00000  -0.26691
    Z4        0.00000   0.00000   0.00000   0.00000   0.00000   0.00000
         Item               Value     Threshold  Converged?
 Maximum Force            0.119225     0.000450     NO 
 RMS     Force            0.059612     0.000300     NO 
 Maximum Displacement     0.173398     0.001800     NO 
 RMS     Displacement     0.086699     0.001200     NO 
 Predicted change in Energy=-5.184312D-02
 GradGradGradGradGradGradGradGradGradGradGradGradGradGradGradGradGradGrad

 1|1|UNPC-LAPTOP-7BBBEH3F|Freq|RHF|6-31+G(d)|B1F3|SAIF_|30-Sep-2025|0||
 # freq hf/6-31+g(d) geom=connectivity||Title Card Required||0,1|B,-3.4
 839924156,-0.1412429372,0.|F,-4.2139924157,1.1231541525,0.|F,-4.213992
 4157,-1.4056400269,0.|F,-2.0239924155,-0.1412429372,0.||Version=IA32W-
 G09RevA.02|State=1-A1'|HF=-323.1467451|RMSD=4.301e-009|RMSF=5.961e-002
 |ZeroPoint=0.0094937|Thermal=0.0132137|Dipole=0.,0.,0.|DipoleDeriv=2.2
 191541,0.,0.,0.,2.2191542,0.,0.,0.,1.3013538,-0.6200354,0.2072965,0.,0
 .2072965,-0.8594008,0.,0.,0.,-0.4337846,-0.6200354,-0.2072965,0.,-0.20
 72965,-0.8594008,0.,0.,0.,-0.4337846,-0.9790835,0.,0.,0.,-0.5003527,0.
 ,0.,0.,-0.4337846|Polar=15.5776016,0.,15.5776016,0.,0.,10.0075285|Pola
 rDeriv=-1.0721993,0.0000003,1.0721996,0.,0.,-0.0000001,-0.0000005,1.07
 21992,0.,0.,0.,0.0000002,0.,0.,0.,0.,0.,0.,-2.7195607,2.0201245,-1.101
 721,0.,0.,-0.4319653,1.2892025,-1.5237191,5.3294515,0.,0.,0.7481858,0.
 ,0.,0.,-0.672958,1.1655974,0.,-2.7195607,-2.0201245,-1.101721,0.,0.,-0
 .4319653,-1.2892025,-1.5237191,-5.3294515,0.,0.,-0.7481858,0.,0.,0.,-0
 .672958,-1.1655974,0.,6.5113202,0.,1.1312432,0.,0.,0.8639306,0.,1.9752
 393,0.,0.,0.,0.,0.,0.,0.,1.3459159,0.,0.|HyperPolar=-6.1018835,0.,6.10
 18835,0.,0.,0.,0.,0.,0.,0.|PG=D03H [O(B1),3C2(F1)]|NImag=0||0.31041857
 ,0.,0.31041857,0.,0.,0.24115071,-0.09205194,0.01978161,0.,0.10511298,0
 .01978161,-0.11489378,0.,-0.03952021,0.15074699,0.,0.,-0.08038357,0.,0
 .,0.05560316,-0.09205194,-0.01978161,0.,0.01056361,0.00330664,0.,0.105
 11298,-0.01978161,-0.11489378,0.,-0.00330664,-0.03502073,0.,0.03952021
 ,0.15074699,0.,0.,-0.08038357,0.,0.,0.01239021,0.,0.,0.05560316,-0.126
 31469,0.,0.,-0.02362465,0.01643196,0.,-0.02362465,-0.01643196,0.,0.173
 56399,0.,-0.08063103,0.,0.02304524,-0.00083248,0.,-0.02304524,-0.00083
 248,0.,0.,0.08229598,0.,0.,-0.08038357,0.,0.,0.01239021,0.,0.,0.012390
 21,0.,0.,0.05560316||0.,0.,0.,-0.05961227,0.10325148,0.,-0.05961227,-0
 .10325148,0.,0.11922454,0.,0.|||@


 ... IT IS NO ONE DREAME THAT
     CAN PLEASE THESE ALL ...

                -- BEN JONSON
 Job cpu time:  0 days  0 hours  0 minutes  8.0 seconds.
 File lengths (MBytes):  RWF=      6 Int=      0 D2E=      0 Chk=      1 Scr=      1
 Normal termination of Gaussian 09 at Tue Sep 30 07:05:41 2025.
