 Entering Link 1 = C:\G09W\l1.exe PID=      2096.
  
 Copyright (c) 1988,1990,1992,1993,1995,1998,2003,2009, Gaussian, Inc.
                  All Rights Reserved.
  
 This is part of the Gaussian(R) 09 program.  It is based on
 the Gaussian(R) 03 system (copyright 2003, Gaussian, Inc.),
 the Gaussian(R) 98 system (copyright 1998, Gaussian, Inc.),
 the Gaussian(R) 94 system (copyright 1995, Gaussian, Inc.),
 the Gaussian 92(TM) system (copyright 1992, Gaussian, Inc.),
 the Gaussian 90(TM) system (copyright 1990, Gaussian, Inc.),
 the Gaussian 88(TM) system (copyright 1988, Gaussian, Inc.),
 the Gaussian 86(TM) system (copyright 1986, Carnegie Mellon
 University), and the Gaussian 82(TM) system (copyright 1983,
 Carnegie Mellon University). Gaussian is a federally registered
 trademark of Gaussian, Inc.
  
 This software contains proprietary and confidential information,
 including trade secrets, belonging to Gaussian, Inc.
  
 This software is provided under written license and may be
 used, copied, transmitted, or stored only in accord with that
 written license.
  
 The following legend is applicable only to US Government
 contracts under FAR:
  
                    RESTRICTED RIGHTS LEGEND
  
 Use, reproduction and disclosure by the US Government is
 subject to restrictions as set forth in subparagraphs (a)
 and (c) of the Commercial Computer Software - Restricted
 Rights clause in FAR 52.227-19.
  
 Gaussian, Inc.
 340 Quinnipiac St., Bldg. 40, Wallingford CT 06492
  
  
 ---------------------------------------------------------------
 Warning -- This program may not be used in any manner that
 competes with the business of Gaussian, Inc. or will provide
 assistance to any competitor of Gaussian, Inc.  The licensee
 of this program is prohibited from giving any competitor of
 Gaussian, Inc. access to this program.  By using this program,
 the user acknowledges that Gaussian, Inc. is engaged in the
 business of creating and licensing software in the field of
 computational chemistry and represents and warrants to the
 licensee that it is not a competitor of Gaussian, Inc. and that
 it will not use this program in any manner prohibited above.
 ---------------------------------------------------------------
  

 Cite this work as:
 Gaussian 09, Revision A.02,
 M. J. Frisch, G. W. Trucks, H. B. Schlegel, G. E. Scuseria, 
 M. A. Robb, J. R. Cheeseman, G. Scalmani, V. Barone, B. Mennucci, 
 G. A. Petersson, H. Nakatsuji, M. Caricato, X. Li, H. P. Hratchian, 
 A. F. Izmaylov, J. Bloino, G. Zheng, J. L. Sonnenberg, M. Hada, 
 M. Ehara, K. Toyota, R. Fukuda, J. Hasegawa, M. Ishida, T. Nakajima, 
 Y. Honda, O. Kitao, H. Nakai, T. Vreven, J. A. Montgomery, Jr., 
 J. E. Peralta, F. Ogliaro, M. Bearpark, J. J. Heyd, E. Brothers, 
 K. N. Kudin, V. N. Staroverov, R. Kobayashi, J. Normand, 
 K. Raghavachari, A. Rendell, J. C. Burant, S. S. Iyengar, J. Tomasi, 
 M. Cossi, N. Rega, J. M. Millam, M. Klene, J. E. Knox, J. B. Cross, 
 V. Bakken, C. Adamo, J. Jaramillo, R. Gomperts, R. E. Stratmann, 
 O. Yazyev, A. J. Austin, R. Cammi, C. Pomelli, J. W. Ochterski, 
 R. L. Martin, K. Morokuma, V. G. Zakrzewski, G. A. Voth, 
 P. Salvador, J. J. Dannenberg, S. Dapprich, A. D. Daniels, 
 O. Farkas, J. B. Foresman, J. V. Ortiz, J. Cioslowski, 
 and D. J. Fox, Gaussian, Inc., Wallingford CT, 2009.
 
 ******************************************
 Gaussian 09:  IA32W-G09RevA.02 11-Jun-2009
                03-Aug-2025 
 ******************************************
 %chk=C:\Users\saif_\Desktop\downs\GV\BF3.chk
 -----------------------------------------
 # opt freq hf/6-31+g(d) geom=connectivity
 -----------------------------------------
 1/18=20,19=15,38=1,57=2/1,3;
 2/9=110,12=2,17=6,18=5,40=1/2;
 3/5=1,6=6,7=11,11=9,16=1,25=1,30=1,71=1/1,2,3;
 4//1;
 5/5=2,38=5/2;
 6/7=2,8=2,9=2,10=2,28=1/1;
 7//1,2,3,16;
 1/18=20,19=15/3(2);
 2/9=110/2;
 99//99;
 2/9=110/2;
 3/5=1,6=6,7=11,11=9,16=1,25=1,30=1,71=1/1,2,3;
 4/5=5,16=3/1;
 5/5=2,38=5/2;
 7//1,2,3,16;
 1/18=20,19=15/3(-5);
 2/9=110/2;
 6/7=2,8=2,9=2,10=2,19=2,28=1/1;
 99/9=1/99;
 -------------------
 Title Card Required
 -------------------
 Symbolic Z-matrix:
 Charge =  0 Multiplicity = 1
 B                    -3.48399  -0.14124   0. 
 F                    -4.21399   1.12315   0. 
 F                    -4.21399  -1.40564   0. 
 F                    -2.02399  -0.14124   0. 
 

 GradGradGradGradGradGradGradGradGradGradGradGradGradGradGradGradGradGrad
 Berny optimization.
 Initialization pass.
                           ----------------------------
                           !    Initial Parameters    !
                           ! (Angstroms and Degrees)  !
 --------------------------                            --------------------------
 ! Name  Definition              Value          Derivative Info.                !
 --------------------------------------------------------------------------------
 ! R1    R(1,2)                  1.46           estimate D2E/DX2                !
 ! R2    R(1,3)                  1.46           estimate D2E/DX2                !
 ! R3    R(1,4)                  1.46           estimate D2E/DX2                !
 ! A1    A(2,1,3)              120.0            estimate D2E/DX2                !
 ! A2    A(2,1,4)              120.0            estimate D2E/DX2                !
 ! A3    A(3,1,4)              120.0            estimate D2E/DX2                !
 ! D1    D(2,1,4,3)            180.0            estimate D2E/DX2                !
 --------------------------------------------------------------------------------
 Trust Radius=3.00D-01 FncErr=1.00D-07 GrdErr=1.00D-07
 Number of steps in this run=  20 maximum allowed number of steps= 100.
 GradGradGradGradGradGradGradGradGradGradGradGradGradGradGradGradGradGrad

                          Input orientation:                          
 ---------------------------------------------------------------------
 Center     Atomic      Atomic             Coordinates (Angstroms)
 Number     Number       Type             X           Y           Z
 ---------------------------------------------------------------------
      1          5           0       -3.483992   -0.141243    0.000000
      2          9           0       -4.213992    1.123154    0.000000
      3          9           0       -4.213992   -1.405640    0.000000
      4          9           0       -2.023992   -0.141243    0.000000
 ---------------------------------------------------------------------
                    Distance matrix (angstroms):
                    1          2          3          4
     1  B    0.000000
     2  F    1.460000   0.000000
     3  F    1.460000   2.528794   0.000000
     4  F    1.460000   2.528794   2.528794   0.000000
 Stoichiometry    BF3
 Framework group  D3H[O(B),3C2(F)]
 Deg. of freedom     1
 Full point group                 D3H     NOp  12
 Largest Abelian subgroup         C2V     NOp   4
 Largest concise Abelian subgroup C2      NOp   2
                         Standard orientation:                         
 ---------------------------------------------------------------------
 Center     Atomic      Atomic             Coordinates (Angstroms)
 Number     Number       Type             X           Y           Z
 ---------------------------------------------------------------------
      1          5           0        0.000000    0.000000    0.000000
      2          9           0        0.000000    1.460000    0.000000
      3          9           0       -1.264397   -0.730000    0.000000
      4          9           0        1.264397   -0.730000    0.000000
 ---------------------------------------------------------------------
 Rotational constants (GHZ):      8.3196130      8.3196130      4.1598065
 Standard basis: 6-31+G(d) (6D, 7F)
 There are    34 symmetry adapted basis functions of A1  symmetry.
 There are     7 symmetry adapted basis functions of A2  symmetry.
 There are    22 symmetry adapted basis functions of B1  symmetry.
 There are    13 symmetry adapted basis functions of B2  symmetry.
 Integral buffers will be    262144 words long.
 Raffenetti 1 integral format.
 Two-electron integral symmetry is turned on.
    76 basis functions,   128 primitive gaussians,    76 cartesian basis functions
    16 alpha electrons       16 beta electrons
       nuclear repulsion energy        99.7811163519 Hartrees.
 NAtoms=    4 NActive=    4 NUniq=    2 SFac= 3.00D+00 NAtFMM=   80 NAOKFM=F Big=F
 One-electron integrals computed using PRISM.
 NBasis=    76 RedAO= T  NBF=    34     7    22    13
 NBsUse=    76 1.00D-06 NBFU=    34     7    22    13
 Harris functional with IExCor=  205 diagonalized for initial guess.
 ExpMin= 3.15D-02 ExpMax= 7.00D+03 ExpMxC= 1.05D+03 IAcc=3 IRadAn=         0 AccDes= 0.00D+00
 HarFok:  IExCor=  205 AccDes= 0.00D+00 IRadAn=         0 IDoV= 1
 ScaDFX=  1.000000  1.000000  1.000000  1.000000
 FoFCou: FMM=F IPFlag=           0 FMFlag=      100000 FMFlg1=           0
         NFxFlg=           0 DoJE=T BraDBF=F KetDBF=T FulRan=T
         Omega=  0.000000  0.000000  1.000000  0.000000  0.000000 ICntrl=     500 IOpCl=  0
         NMat0=    1 NMatS0=    1 NMatT0=    0 NMatD0=    1 NMtDS0=    0 NMtDT0=    0
         I1Cent=           4 NGrid=           0.
 Petite list used in FoFCou.
 Initial guess orbital symmetries:
       Occupied  (E') (E') (A1') (A1') (A1') (E') (E') (A1') (E')
                 (E') (A2") (E') (E') (E") (E") (A2')
       Virtual   (A2") (A1') (E') (E') (A2") (A1') (E') (E') (E')
                 (E') (E") (E") (A1') (A1') (A2") (E') (E') (A2')
                 (E') (E') (A2") (E') (E') (A1') (E") (E") (A2')
                 (E") (E") (E') (E') (A1') (A2") (E') (E') (E')
                 (E') (A1') (A1") (E") (E") (E') (E') (A2') (A1')
                 (E') (E') (A1') (A2") (E") (E") (E') (E') (E')
                 (E') (A1') (A1') (E') (E') (A1')
 The electronic state of the initial guess is 1-A1'.
 Requested convergence on RMS density matrix=1.00D-08 within 128 cycles.
 Requested convergence on MAX density matrix=1.00D-06.
 Requested convergence on             energy=1.00D-06.
 No special actions if energy rises.
 Keep R1 ints in memory in canonical form, NReq=5138753.
 SCF Done:  E(RHF) =  -323.146745117     A.U. after   10 cycles
             Convg  =    0.4301D-08             -V/T =  2.0058

 **********************************************************************

            Population analysis using the SCF density.

 **********************************************************************

 Orbital symmetries:
       Occupied  (E') (E') (A1') (A1') (A1') (E') (E') (A1') (E')
                 (E') (A2") (E') (E') (E") (E") (A2')
       Virtual   (A1') (A2") (E') (E') (A2") (A1') (E') (E') (A1')
                 (E") (E") (E') (E') (A2") (A1') (A2') (E') (E')
                 (E') (E') (A2") (E') (E') (A1') (E") (E") (E')
                 (E') (A1') (E") (E") (A2') (A1') (A2") (E') (E')
                 (E') (E') (E') (E') (A1") (E") (E") (A1') (A2')
                 (E') (E') (A1') (A2") (E") (E") (E') (E') (E')
                 (E') (A1') (A1') (E') (E') (A1')
 The electronic state is 1-A1'.
 Alpha  occ. eigenvalues --  -26.36735 -26.36735 -26.36733  -7.87739  -1.64626
 Alpha  occ. eigenvalues --   -1.62032  -1.62032  -0.83587  -0.77238  -0.77238
 Alpha  occ. eigenvalues --   -0.73063  -0.68848  -0.68848  -0.68336  -0.68336
 Alpha  occ. eigenvalues --   -0.66913
 Alpha virt. eigenvalues --    0.04386   0.06043   0.08003   0.08003   0.13366
 Alpha virt. eigenvalues --    0.22835   0.29662   0.29662   0.33477   0.33894
 Alpha virt. eigenvalues --    0.33894   0.34716   0.34716   0.38210   0.41529
 Alpha virt. eigenvalues --    0.42035   0.45282   0.45282   0.51892   0.51892
 Alpha virt. eigenvalues --    0.69068   0.85165   0.85165   0.97683   1.32636
 Alpha virt. eigenvalues --    1.32636   1.72473   1.72473   1.73470   1.81389
 Alpha virt. eigenvalues --    1.81389   1.83530   1.83595   1.85824   1.88653
 Alpha virt. eigenvalues --    1.88653   1.90440   1.90440   2.08537   2.08537
 Alpha virt. eigenvalues --    2.08970   2.09300   2.09300   2.12400   2.12678
 Alpha virt. eigenvalues --    2.16288   2.16288   2.19810   2.29587   2.58131
 Alpha virt. eigenvalues --    2.58131   2.84321   2.84321   3.22657   3.22657
 Alpha virt. eigenvalues --    3.32792   4.02752   5.35251   5.35251   5.37881
          Condensed to atoms (all electrons):
              1          2          3          4
     1  B    2.669948   0.283175   0.283175   0.283175
     2  F    0.283175   9.284692  -0.037179  -0.037179
     3  F    0.283175  -0.037179   9.284692  -0.037179
     4  F    0.283175  -0.037179  -0.037179   9.284692
 Mulliken atomic charges:
              1
     1  B    1.480527
     2  F   -0.493509
     3  F   -0.493509
     4  F   -0.493509
 Sum of Mulliken atomic charges =   0.00000
 Mulliken charges with hydrogens summed into heavy atoms:
              1
     1  B    1.480527
     2  F   -0.493509
     3  F   -0.493509
     4  F   -0.493509
 Sum of Mulliken charges with hydrogens summed into heavy atoms =   0.00000
 Electronic spatial extent (au):  <R**2>=            254.3396
 Charge=              0.0000 electrons
 Dipole moment (field-independent basis, Debye):
    X=              0.0000    Y=              0.0000    Z=              0.0000  Tot=              0.0000
 Quadrupole moment (field-independent basis, Debye-Ang):
   XX=            -23.8577   YY=            -23.8577   ZZ=            -17.9403
   XY=              0.0000   XZ=              0.0000   YZ=              0.0000
 Traceless Quadrupole moment (field-independent basis, Debye-Ang):
   XX=             -1.9725   YY=             -1.9725   ZZ=              3.9449
   XY=              0.0000   XZ=              0.0000   YZ=              0.0000
 Octapole moment (field-independent basis, Debye-Ang**2):
  XXX=              0.0000  YYY=             -2.9959  ZZZ=              0.0000  XYY=              0.0000
  XXY=              2.9959  XXZ=              0.0000  XZZ=              0.0000  YZZ=              0.0000
  YYZ=              0.0000  XYZ=              0.0000
 Hexadecapole moment (field-independent basis, Debye-Ang**3):
 XXXX=           -115.1728 YYYY=           -115.1728 ZZZZ=            -11.8183 XXXY=              0.0000
 XXXZ=              0.0000 YYYX=              0.0000 YYYZ=              0.0000 ZZZX=              0.0000
 ZZZY=              0.0000 XXYY=            -38.3909 XXZZ=            -20.6470 YYZZ=            -20.6470
 XXYZ=              0.0000 YYXZ=              0.0000 ZZXY=              0.0000
 N-N= 9.978111635185D+01 E-N=-9.703445911550D+02  KE= 3.212696771830D+02
 Symmetry A1   KE= 2.028072135345D+02
 Symmetry A2   KE= 6.252463060901D+00
 Symmetry B1   KE= 1.004555498428D+02
 Symmetry B2   KE= 1.175445074471D+01
 Calling FoFJK, ICntrl=      2127 FMM=F ISym2X=1 I1Cent= 0 IOpClX= 0 NMat=1 NMatS=1 NMatT=0.
 ***** Axes restored to original set *****
 -------------------------------------------------------------------
 Center     Atomic                   Forces (Hartrees/Bohr)
 Number     Number              X              Y              Z
 -------------------------------------------------------------------
      1        5           0.000000000    0.000000000    0.000000000
      2        9           0.059612272   -0.103251484    0.000000000
      3        9           0.059612272    0.103251484    0.000000000
      4        9          -0.119224544    0.000000000    0.000000000
 -------------------------------------------------------------------
 Cartesian Forces:  Max     0.119224544 RMS     0.059612272

 GradGradGradGradGradGradGradGradGradGradGradGradGradGradGradGradGradGrad
 Berny optimization.
 Internal  Forces:  Max     0.119224544 RMS     0.078050785
 Search for a local minimum.
 Step number   1 out of a maximum of   20
 All quantities printed in internal units (Hartrees-Bohrs-Radians)
 Mixed Optimization -- RFO/linear search
 Second derivative matrix not updated -- first step.
 The second derivative matrix:
                          R1        R2        R3        A1        A2
           R1           0.36964
           R2           0.00000   0.36964
           R3           0.00000   0.00000   0.36964
           A1           0.00000   0.00000   0.00000   0.25000
           A2           0.00000   0.00000   0.00000   0.00000   0.25000
           A3           0.00000   0.00000   0.00000   0.00000   0.00000
           D1           0.00000   0.00000   0.00000   0.00000   0.00000
                          A3        D1
           A3           0.25000
           D1           0.00000   0.01163
     Eigenvalues ---    0.01163   0.25000   0.25000   0.36964   0.36964
     Eigenvalues ---    0.369641000.00000
 RFO step:  Lambda=-9.23110564D-02 EMin= 1.16274561D-02
 Linear search not attempted -- first point.
 Maximum step size (   0.300) exceeded in Quadratic search.
    -- Step size scaled by   0.671
 Iteration  1 RMS(Cart)=  0.11338934 RMS(Int)=  0.00000000
 Iteration  2 RMS(Cart)=  0.00000000 RMS(Int)=  0.00000000
 ClnCor:  largest displacement from symmetrization is 9.06D-14 for atom     4.
 Variable       Old X    -DE/DX   Delta X   Delta X   Delta X     New X
                                 (Linear)    (Quad)   (Total)
    R1        2.75900  -0.11922   0.00000  -0.17321  -0.17321   2.58580
    R2        2.75900  -0.11922   0.00000  -0.17321  -0.17321   2.58580
    R3        2.75900  -0.11922   0.00000  -0.17321  -0.17321   2.58580
    A1        2.09440   0.00000   0.00000   0.00000   0.00000   2.09440
    A2        2.09440   0.00000   0.00000   0.00000   0.00000   2.09440
    A3        2.09440   0.00000   0.00000   0.00000   0.00000   2.09440
    D1        3.14159   0.00000   0.00000   0.00000   0.00000   3.14159
         Item               Value     Threshold  Converged?
 Maximum Force            0.119225     0.000450     NO 
 RMS     Force            0.078051     0.000300     NO 
 Maximum Displacement     0.173205     0.001800     NO 
 RMS     Displacement     0.113389     0.001200     NO 
 Predicted change in Energy=-4.531695D-02
 GradGradGradGradGradGradGradGradGradGradGradGradGradGradGradGradGradGrad

                          Input orientation:                          
 ---------------------------------------------------------------------
 Center     Atomic      Atomic             Coordinates (Angstroms)
 Number     Number       Type             X           Y           Z
 ---------------------------------------------------------------------
      1          5           0       -3.483992   -0.141243    0.000000
      2          9           0       -4.168164    1.043778    0.000000
      3          9           0       -4.168164   -1.326263    0.000000
      4          9           0       -2.115649   -0.141243    0.000000
 ---------------------------------------------------------------------
                    Distance matrix (angstroms):
                    1          2          3          4
     1  B    0.000000
     2  F    1.368344   0.000000
     3  F    1.368344   2.370041   0.000000
     4  F    1.368344   2.370041   2.370041   0.000000
 Stoichiometry    BF3
 Framework group  D3H[O(B),3C2(F)]
 Deg. of freedom     1
 Full point group                 D3H     NOp  12
 Largest Abelian subgroup         C2V     NOp   4
 Largest concise Abelian subgroup C2      NOp   2
                         Standard orientation:                         
 ---------------------------------------------------------------------
 Center     Atomic      Atomic             Coordinates (Angstroms)
 Number     Number       Type             X           Y           Z
 ---------------------------------------------------------------------
      1          5           0        0.000000    0.000000    0.000000
      2          9           0        0.000000    1.368344    0.000000
      3          9           0        1.185021   -0.684172    0.000000
      4          9           0       -1.185021   -0.684172    0.000000
 ---------------------------------------------------------------------
 Rotational constants (GHZ):      9.4714913      9.4714913      4.7357457
 Standard basis: 6-31+G(d) (6D, 7F)
 There are    34 symmetry adapted basis functions of A1  symmetry.
 There are     7 symmetry adapted basis functions of A2  symmetry.
 There are    22 symmetry adapted basis functions of B1  symmetry.
 There are    13 symmetry adapted basis functions of B2  symmetry.
 Integral buffers will be    262144 words long.
 Raffenetti 1 integral format.
 Two-electron integral symmetry is turned on.
    76 basis functions,   128 primitive gaussians,    76 cartesian basis functions
    16 alpha electrons       16 beta electrons
       nuclear repulsion energy       106.4647845560 Hartrees.
 NAtoms=    4 NActive=    4 NUniq=    2 SFac= 3.00D+00 NAtFMM=   80 NAOKFM=F Big=F
 One-electron integrals computed using PRISM.
 NBasis=    76 RedAO= T  NBF=    34     7    22    13
 NBsUse=    76 1.00D-06 NBFU=    34     7    22    13
 Initial guess read from the read-write file.
 B after Tr=     0.000000    0.000000    0.000000
         Rot=    1.000000    0.000000    0.000000    0.000000 Ang=   0.00 deg.
 Initial guess orbital symmetries:
       Occupied  (E') (E') (A1') (A1') (?A) (?A) (?A) (?A) (?A)
                 (?A) (?B) (?A) (?A) (?B) (?B) (?A)
       Virtual   (?A) (?B) (?A) (?A) (?B) (?A) (?A) (?A) (?A) (?B)
                 (?B) (?A) (?A) (?B) (?A) (?A) (?A) (?A) (?A) (?A)
                 (?B) (?A) (?A) (?A) (?B) (?B) (?A) (?A) (?A) (?B)
                 (?B) (?A) (?A) (?B) (?A) (?A) (?A) (?A) (?A) (?A)
                 (?B) (?B) (?B) (?A) (?A) (?A) (?A) (?A) (?B) (?B)
                 (?B) (?A) (?A) (?A) (?A) (?A) (?A) (?A) (?A) (?A)
 Harris functional with IExCor=  205 diagonalized for initial guess.
 ExpMin= 3.15D-02 ExpMax= 7.00D+03 ExpMxC= 1.05D+03 IAcc=3 IRadAn=         0 AccDes= 0.00D+00
 HarFok:  IExCor=  205 AccDes= 0.00D+00 IRadAn=         0 IDoV= 1
 ScaDFX=  1.000000  1.000000  1.000000  1.000000
 FoFCou: FMM=F IPFlag=           0 FMFlag=      100000 FMFlg1=           0
         NFxFlg=           0 DoJE=T BraDBF=F KetDBF=T FulRan=T
         Omega=  0.000000  0.000000  1.000000  0.000000  0.000000 ICntrl=     500 IOpCl=  0
         NMat0=    1 NMatS0=    1 NMatT0=    0 NMatD0=    1 NMtDS0=    0 NMtDT0=    0
         I1Cent=           4 NGrid=           0.
 Petite list used in FoFCou.
 Requested convergence on RMS density matrix=1.00D-08 within 128 cycles.
 Requested convergence on MAX density matrix=1.00D-06.
 Requested convergence on             energy=1.00D-06.
 No special actions if energy rises.
 Keep R1 ints in memory in canonical form, NReq=5138753.
 Density matrix breaks symmetry, PCut= 1.00D-04
 Density has only Abelian symmetry.
 Density matrix breaks symmetry, PCut= 1.00D-07
 Density has only Abelian symmetry.
 Density matrix breaks symmetry, PCut= 1.00D-07
 Density has only Abelian symmetry.
 Density matrix breaks symmetry, PCut= 1.00D-07
 Density has only Abelian symmetry.
 Density matrix breaks symmetry, PCut= 1.00D-07
 Density has only Abelian symmetry.
 Density matrix breaks symmetry, PCut= 1.00D-07
 Density has only Abelian symmetry.
 Density matrix breaks symmetry, PCut= 1.00D-07
 Density has only Abelian symmetry.
 Density matrix breaks symmetry, PCut= 1.00D-07
 Density has only Abelian symmetry.
 Density matrix breaks symmetry, PCut= 1.00D-07
 Density has only Abelian symmetry.
 Density matrix breaks symmetry, PCut= 1.00D-07
 Density has only Abelian symmetry.
 Density matrix breaks symmetry, PCut= 1.00D-07
 Density has only Abelian symmetry.
 SCF Done:  E(RHF) =  -323.195983980     A.U. after   12 cycles
             Convg  =    0.4520D-08             -V/T =  2.0043
 Calling FoFJK, ICntrl=      2127 FMM=F ISym2X=1 I1Cent= 0 IOpClX= 0 NMat=1 NMatS=1 NMatT=0.
 ***** Axes restored to original set *****
 -------------------------------------------------------------------
 Center     Atomic                   Forces (Hartrees/Bohr)
 Number     Number              X              Y              Z
 -------------------------------------------------------------------
      1        5           0.000000002   -0.000000003    0.000000000
      2        9           0.032366942   -0.056061189    0.000000000
      3        9           0.032366943    0.056061191    0.000000000
      4        9          -0.064733887    0.000000001    0.000000000
 -------------------------------------------------------------------
 Cartesian Forces:  Max     0.064733887 RMS     0.032366943

 GradGradGradGradGradGradGradGradGradGradGradGradGradGradGradGradGradGrad
 Berny optimization.
 Using GEDIIS/GDIIS optimizer.
 Internal  Forces:  Max     0.064733887 RMS     0.042378276
 Search for a local minimum.
 Step number   2 out of a maximum of   20
 All quantities printed in internal units (Hartrees-Bohrs-Radians)
 Mixed Optimization -- RFO/linear search
 Update second derivatives using D2CorX and points    1    2
 DE= -4.92D-02 DEPred=-4.53D-02 R= 1.09D+00
 SS=  1.41D+00  RLast= 3.00D-01 DXNew= 5.0454D-01 9.0000D-01
 Trust test= 1.09D+00 RLast= 3.00D-01 DXMaxT set to 5.05D-01
 The second derivative matrix:
                          R1        R2        R3        A1        A2
           R1           0.35130
           R2          -0.01835   0.35130
           R3          -0.01835  -0.01835   0.35130
           A1           0.00000   0.00000   0.00000   0.25000
           A2           0.00000   0.00000   0.00000   0.00000   0.25000
           A3           0.00000   0.00000   0.00000   0.00000   0.00000
           D1           0.00000   0.00000   0.00000   0.00000   0.00000
                          A3        D1
           A3           0.25000
           D1           0.00000   0.01163
 Use linear search instead of GDIIS.
     Eigenvalues ---    0.01163   0.25000   0.25000   0.31460   0.36964
     Eigenvalues ---    0.369641000.00000
 RFO step:  Lambda= 0.00000000D+00 EMin= 1.16274561D-02
 Quartic linear search produced a step of  0.74179.
 Iteration  1 RMS(Cart)=  0.08411072 RMS(Int)=  0.00000000
 Iteration  2 RMS(Cart)=  0.00000000 RMS(Int)=  0.00000000
 ClnCor:  largest displacement from symmetrization is 8.16D-09 for atom     1.
 Variable       Old X    -DE/DX   Delta X   Delta X   Delta X     New X
                                 (Linear)    (Quad)   (Total)
    R1        2.58580  -0.06473  -0.12848   0.00000  -0.12848   2.45731
    R2        2.58580  -0.06473  -0.12848   0.00000  -0.12848   2.45731
    R3        2.58580  -0.06473  -0.12848   0.00000  -0.12848   2.45731
    A1        2.09440   0.00000   0.00000   0.00000   0.00000   2.09440
    A2        2.09440   0.00000   0.00000   0.00000   0.00000   2.09440
    A3        2.09440   0.00000   0.00000   0.00000   0.00000   2.09440
    D1        3.14159   0.00000   0.00000   0.00000   0.00000   3.14159
         Item               Value     Threshold  Converged?
 Maximum Force            0.064734     0.000450     NO 
 RMS     Force            0.042378     0.000300     NO 
 Maximum Displacement     0.128481     0.001800     NO 
 RMS     Displacement     0.084111     0.001200     NO 
 Predicted change in Energy=-1.716137D-02
 GradGradGradGradGradGradGradGradGradGradGradGradGradGradGradGradGradGrad

                          Input orientation:                          
 ---------------------------------------------------------------------
 Center     Atomic      Atomic             Coordinates (Angstroms)
 Number     Number       Type             X           Y           Z
 ---------------------------------------------------------------------
      1          5           0       -3.483992   -0.141243    0.000000
      2          9           0       -4.134170    0.984897    0.000000
      3          9           0       -4.134170   -1.267383    0.000000
      4          9           0       -2.183638   -0.141243    0.000000
 ---------------------------------------------------------------------
                    Distance matrix (angstroms):
                    1          2          3          4
     1  B    0.000000
     2  F    1.300354   0.000000
     3  F    1.300354   2.252280   0.000000
     4  F    1.300354   2.252280   2.252280   0.000000
 Stoichiometry    BF3
 Framework group  D3H[O(B),3C2(F)]
 Deg. of freedom     1
 Full point group                 D3H     NOp  12
 Largest Abelian subgroup         C2V     NOp   4
 Largest concise Abelian subgroup C2      NOp   2
                         Standard orientation:                         
 ---------------------------------------------------------------------
 Center     Atomic      Atomic             Coordinates (Angstroms)
 Number     Number       Type             X           Y           Z
 ---------------------------------------------------------------------
      1          5           0        0.000000    0.000000    0.000000
      2          9           0        0.000000    1.300354    0.000000
      3          9           0        1.126140   -0.650177    0.000000
      4          9           0       -1.126140   -0.650177    0.000000
 ---------------------------------------------------------------------
 Rotational constants (GHZ):     10.4878225     10.4878225      5.2439112
 Standard basis: 6-31+G(d) (6D, 7F)
 There are    34 symmetry adapted basis functions of A1  symmetry.
 There are     7 symmetry adapted basis functions of A2  symmetry.
 There are    22 symmetry adapted basis functions of B1  symmetry.
 There are    13 symmetry adapted basis functions of B2  symmetry.
 Integral buffers will be    262144 words long.
 Raffenetti 1 integral format.
 Two-electron integral symmetry is turned on.
    76 basis functions,   128 primitive gaussians,    76 cartesian basis functions
    16 alpha electrons       16 beta electrons
       nuclear repulsion energy       112.0313219070 Hartrees.
 NAtoms=    4 NActive=    4 NUniq=    2 SFac= 3.00D+00 NAtFMM=   80 NAOKFM=F Big=F
 One-electron integrals computed using PRISM.
 NBasis=    76 RedAO= T  NBF=    34     7    22    13
 NBsUse=    76 1.00D-06 NBFU=    34     7    22    13
 Initial guess read from the read-write file.
 B after Tr=     0.000000    0.000000    0.000000
         Rot=    1.000000    0.000000    0.000000    0.000000 Ang=   0.00 deg.
 Initial guess orbital symmetries:
       Occupied  (E') (E') (A1') (A1') (A1') (E') (E') (A1') (E')
                 (E') (A2") (E') (E') (E") (E") (A2')
       Virtual   (A1') (A2") (E') (E') (A2") (A1') (E') (E') (A1')
                 (E") (E") (E') (E') (A2") (A2') (A1') (E') (E')
                 (E') (E') (A2") (E') (E') (A1') (E") (E") (A1')
                 (E') (E') (A1') (E") (E") (A2") (A2') (E') (E')
                 (E') (E') (E") (E") (A1") (E') (E') (A1') (E')
                 (E') (A2') (A1') (A2") (E") (E") (E') (E') (E')
                 (E') (A1') (A1') (A1') (E') (E')
 Harris functional with IExCor=  205 diagonalized for initial guess.
 ExpMin= 3.15D-02 ExpMax= 7.00D+03 ExpMxC= 1.05D+03 IAcc=3 IRadAn=         0 AccDes= 0.00D+00
 HarFok:  IExCor=  205 AccDes= 0.00D+00 IRadAn=         0 IDoV= 1
 ScaDFX=  1.000000  1.000000  1.000000  1.000000
 FoFCou: FMM=F IPFlag=           0 FMFlag=      100000 FMFlg1=           0
         NFxFlg=           0 DoJE=T BraDBF=F KetDBF=T FulRan=T
         Omega=  0.000000  0.000000  1.000000  0.000000  0.000000 ICntrl=     500 IOpCl=  0
         NMat0=    1 NMatS0=    1 NMatT0=    0 NMatD0=    1 NMtDS0=    0 NMtDT0=    0
         I1Cent=           4 NGrid=           0.
 Petite list used in FoFCou.
 Requested convergence on RMS density matrix=1.00D-08 within 128 cycles.
 Requested convergence on MAX density matrix=1.00D-06.
 Requested convergence on             energy=1.00D-06.
 No special actions if energy rises.
 Keep R1 ints in memory in canonical form, NReq=5138753.
 SCF Done:  E(RHF) =  -323.208921821     A.U. after    9 cycles
             Convg  =    0.5639D-08             -V/T =  2.0026
 Calling FoFJK, ICntrl=      2127 FMM=F ISym2X=1 I1Cent= 0 IOpClX= 0 NMat=1 NMatS=1 NMatT=0.
 ***** Axes restored to original set *****
 -------------------------------------------------------------------
 Center     Atomic                   Forces (Hartrees/Bohr)
 Number     Number              X              Y              Z
 -------------------------------------------------------------------
      1        5           0.000000000    0.000000000    0.000000000
      2        9          -0.001126881    0.001951814    0.000000000
      3        9          -0.001126881   -0.001951814    0.000000000
      4        9           0.002253761    0.000000000    0.000000000
 -------------------------------------------------------------------
 Cartesian Forces:  Max     0.002253761 RMS     0.001126881

 GradGradGradGradGradGradGradGradGradGradGradGradGradGradGradGradGradGrad
 Berny optimization.
 Using GEDIIS/GDIIS optimizer.
 Internal  Forces:  Max     0.002253761 RMS     0.001475433
 Search for a local minimum.
 Step number   3 out of a maximum of   20
 All quantities printed in internal units (Hartrees-Bohrs-Radians)
 Mixed Optimization -- RFO/linear search
 Update second derivatives using D2CorX and points    1    2    3
 DE= -1.29D-02 DEPred=-1.72D-02 R= 7.54D-01
 SS=  1.41D+00  RLast= 2.23D-01 DXNew= 8.4853D-01 6.6761D-01
 Trust test= 7.54D-01 RLast= 2.23D-01 DXMaxT set to 6.68D-01
 The second derivative matrix:
                          R1        R2        R3        A1        A2
           R1           0.42022
           R2           0.05058   0.42022
           R3           0.05058   0.05058   0.42022
           A1           0.00000   0.00000   0.00000   0.25000
           A2           0.00000   0.00000   0.00000   0.00000   0.25000
           A3           0.00000   0.00000   0.00000   0.00000   0.00000
           D1           0.00000   0.00000   0.00000   0.00000   0.00000
                          A3        D1
           A3           0.25000
           D1           0.00000   0.01163
 Use linear search instead of GDIIS.
     Eigenvalues ---    0.01163   0.25000   0.25000   0.36964   0.36964
     Eigenvalues ---    0.521381000.00000
 RFO step:  Lambda= 0.00000000D+00 EMin= 1.16274561D-02
 Quartic linear search produced a step of -0.02782.
 Iteration  1 RMS(Cart)=  0.00234026 RMS(Int)=  0.00000000
 Iteration  2 RMS(Cart)=  0.00000000 RMS(Int)=  0.00000000
 ClnCor:  largest displacement from symmetrization is 1.30D-10 for atom     1.
 Variable       Old X    -DE/DX   Delta X   Delta X   Delta X     New X
                                 (Linear)    (Quad)   (Total)
    R1        2.45731   0.00225   0.00357   0.00000   0.00357   2.46089
    R2        2.45731   0.00225   0.00357   0.00000   0.00357   2.46089
    R3        2.45731   0.00225   0.00357   0.00000   0.00357   2.46089
    A1        2.09440   0.00000   0.00000   0.00000   0.00000   2.09440
    A2        2.09440   0.00000   0.00000   0.00000   0.00000   2.09440
    A3        2.09440   0.00000   0.00000   0.00000   0.00000   2.09440
    D1        3.14159   0.00000   0.00000   0.00000   0.00000   3.14159
         Item               Value     Threshold  Converged?
 Maximum Force            0.002254     0.000450     NO 
 RMS     Force            0.001475     0.000300     NO 
 Maximum Displacement     0.003575     0.001800     NO 
 RMS     Displacement     0.002340     0.001200     NO 
 Predicted change in Energy=-1.417600D-05
 GradGradGradGradGradGradGradGradGradGradGradGradGradGradGradGradGradGrad

                          Input orientation:                          
 ---------------------------------------------------------------------
 Center     Atomic      Atomic             Coordinates (Angstroms)
 Number     Number       Type             X           Y           Z
 ---------------------------------------------------------------------
      1          5           0       -3.483992   -0.141243    0.000000
      2          9           0       -4.135116    0.986535    0.000000
      3          9           0       -4.135116   -1.269021    0.000000
      4          9           0       -2.181746   -0.141243    0.000000
 ---------------------------------------------------------------------
                    Distance matrix (angstroms):
                    1          2          3          4
     1  B    0.000000
     2  F    1.302246   0.000000
     3  F    1.302246   2.255557   0.000000
     4  F    1.302246   2.255557   2.255557   0.000000
 Stoichiometry    BF3
 Framework group  D3H[O(B),3C2(F)]
 Deg. of freedom     1
 Full point group                 D3H     NOp  12
 Largest Abelian subgroup         C2V     NOp   4
 Largest concise Abelian subgroup C2      NOp   2
                         Standard orientation:                         
 ---------------------------------------------------------------------
 Center     Atomic      Atomic             Coordinates (Angstroms)
 Number     Number       Type             X           Y           Z
 ---------------------------------------------------------------------
      1          5           0        0.000000    0.000000    0.000000
      2          9           0        0.000000    1.302246    0.000000
      3          9           0        1.127778   -0.651123    0.000000
      4          9           0       -1.127778   -0.651123    0.000000
 ---------------------------------------------------------------------
 Rotational constants (GHZ):     10.4573744     10.4573744      5.2286872
 Standard basis: 6-31+G(d) (6D, 7F)
 There are    34 symmetry adapted basis functions of A1  symmetry.
 There are     7 symmetry adapted basis functions of A2  symmetry.
 There are    22 symmetry adapted basis functions of B1  symmetry.
 There are    13 symmetry adapted basis functions of B2  symmetry.
 Integral buffers will be    262144 words long.
 Raffenetti 1 integral format.
 Two-electron integral symmetry is turned on.
    76 basis functions,   128 primitive gaussians,    76 cartesian basis functions
    16 alpha electrons       16 beta electrons
       nuclear repulsion energy       111.8685800644 Hartrees.
 NAtoms=    4 NActive=    4 NUniq=    2 SFac= 3.00D+00 NAtFMM=   80 NAOKFM=F Big=F
 One-electron integrals computed using PRISM.
 NBasis=    76 RedAO= T  NBF=    34     7    22    13
 NBsUse=    76 1.00D-06 NBFU=    34     7    22    13
 Initial guess read from the read-write file.
 B after Tr=     0.000000    0.000000    0.000000
         Rot=    1.000000    0.000000    0.000000    0.000000 Ang=   0.00 deg.
 Initial guess orbital symmetries:
       Occupied  (E') (E') (A1') (A1') (A1') (E') (E') (A1') (E')
                 (E') (A2") (E') (E') (E") (E") (A2')
       Virtual   (A1') (A2") (E') (E') (A2") (A1') (E') (E') (A1')
                 (E") (E") (E') (E') (A2") (A2') (A1') (E') (E')
                 (E') (E') (A2") (E') (E') (A1') (E") (E") (A1')
                 (E') (E') (A1') (E") (E") (A2") (A2') (E') (E')
                 (E') (E') (E") (E") (A1") (A1') (E') (E') (E')
                 (E') (A2') (A1') (A2") (E") (E") (E') (E') (E')
                 (E') (A1') (A1') (A1') (E') (E')
 Requested convergence on RMS density matrix=1.00D-08 within 128 cycles.
 Requested convergence on MAX density matrix=1.00D-06.
 Requested convergence on             energy=1.00D-06.
 No special actions if energy rises.
 Keep R1 ints in memory in canonical form, NReq=5138753.
 SCF Done:  E(RHF) =  -323.208933830     A.U. after    7 cycles
             Convg  =    0.9646D-08             -V/T =  2.0026
 Calling FoFJK, ICntrl=      2127 FMM=F ISym2X=1 I1Cent= 0 IOpClX= 0 NMat=1 NMatS=1 NMatT=0.
 ***** Axes restored to original set *****
 -------------------------------------------------------------------
 Center     Atomic                   Forces (Hartrees/Bohr)
 Number     Number              X              Y              Z
 -------------------------------------------------------------------
      1        5           0.000000000    0.000000000    0.000000000
      2        9           0.000004939   -0.000008555    0.000000000
      3        9           0.000004939    0.000008555    0.000000000
      4        9          -0.000009878    0.000000000    0.000000000
 -------------------------------------------------------------------
 Cartesian Forces:  Max     0.000009878 RMS     0.000004939

 GradGradGradGradGradGradGradGradGradGradGradGradGradGradGradGradGradGrad
 Berny optimization.
 Using GEDIIS/GDIIS optimizer.
 Internal  Forces:  Max     0.000009878 RMS     0.000006467
 Search for a local minimum.
 Step number   4 out of a maximum of   20
 All quantities printed in internal units (Hartrees-Bohrs-Radians)
 Mixed Optimization -- En-DIIS/RFO-DIIS
 Update second derivatives using D2CorX and points    1    2    3    4
 DE= -1.20D-05 DEPred=-1.42D-05 R= 8.47D-01
 SS=  1.41D+00  RLast= 6.19D-03 DXNew= 1.1228D+00 1.8575D-02
 Trust test= 8.47D-01 RLast= 6.19D-03 DXMaxT set to 6.68D-01
 The second derivative matrix:
                          R1        R2        R3        A1        A2
           R1           0.45750
           R2           0.08786   0.45750
           R3           0.08786   0.08786   0.45750
           A1           0.00000   0.00000   0.00000   0.25000
           A2           0.00000   0.00000   0.00000   0.00000   0.25000
           A3           0.00000   0.00000   0.00000   0.00000   0.00000
           D1           0.00000   0.00000   0.00000   0.00000   0.00000
                          A3        D1
           A3           0.25000
           D1           0.00000   0.01163
 Use linear search instead of GDIIS.
     Eigenvalues ---    0.01163   0.25000   0.25000   0.36964   0.36964
     Eigenvalues ---    0.633221000.00000
 RFO step:  Lambda= 0.00000000D+00 EMin= 1.16274561D-02
 Quartic linear search produced a step of -0.00439.
 Iteration  1 RMS(Cart)=  0.00001027 RMS(Int)=  0.00000000
 Iteration  2 RMS(Cart)=  0.00000000 RMS(Int)=  0.00000000
 ClnCor:  largest displacement from symmetrization is 3.77D-13 for atom     4.
 Variable       Old X    -DE/DX   Delta X   Delta X   Delta X     New X
                                 (Linear)    (Quad)   (Total)
    R1        2.46089  -0.00001  -0.00002   0.00000  -0.00002   2.46087
    R2        2.46089  -0.00001  -0.00002   0.00000  -0.00002   2.46087
    R3        2.46089  -0.00001  -0.00002   0.00000  -0.00002   2.46087
    A1        2.09440   0.00000   0.00000   0.00000   0.00000   2.09440
    A2        2.09440   0.00000   0.00000   0.00000   0.00000   2.09440
    A3        2.09440   0.00000   0.00000   0.00000   0.00000   2.09440
    D1        3.14159   0.00000   0.00000   0.00000   0.00000   3.14159
         Item               Value     Threshold  Converged?
 Maximum Force            0.000010     0.000450     YES
 RMS     Force            0.000006     0.000300     YES
 Maximum Displacement     0.000016     0.001800     YES
 RMS     Displacement     0.000010     0.001200     YES
 Predicted change in Energy=-2.311525D-10
 Optimization completed.
    -- Stationary point found.
                           ----------------------------
                           !   Optimized Parameters   !
                           ! (Angstroms and Degrees)  !
 --------------------------                            --------------------------
 ! Name  Definition              Value          Derivative Info.                !
 --------------------------------------------------------------------------------
 ! R1    R(1,2)                  1.3022         -DE/DX =    0.0                 !
 ! R2    R(1,3)                  1.3022         -DE/DX =    0.0                 !
 ! R3    R(1,4)                  1.3022         -DE/DX =    0.0                 !
 ! A1    A(2,1,3)              120.0            -DE/DX =    0.0                 !
 ! A2    A(2,1,4)              120.0            -DE/DX =    0.0                 !
 ! A3    A(3,1,4)              120.0            -DE/DX =    0.0                 !
 ! D1    D(2,1,4,3)            180.0            -DE/DX =    0.0                 !
 --------------------------------------------------------------------------------
 GradGradGradGradGradGradGradGradGradGradGradGradGradGradGradGradGradGrad

                          Input orientation:                          
 ---------------------------------------------------------------------
 Center     Atomic      Atomic             Coordinates (Angstroms)
 Number     Number       Type             X           Y           Z
 ---------------------------------------------------------------------
      1          5           0       -3.483992   -0.141243    0.000000
      2          9           0       -4.135116    0.986535    0.000000
      3          9           0       -4.135116   -1.269021    0.000000
      4          9           0       -2.181746   -0.141243    0.000000
 ---------------------------------------------------------------------
                    Distance matrix (angstroms):
                    1          2          3          4
     1  B    0.000000
     2  F    1.302246   0.000000
     3  F    1.302246   2.255557   0.000000
     4  F    1.302246   2.255557   2.255557   0.000000
 Stoichiometry    BF3
 Framework group  D3H[O(B),3C2(F)]
 Deg. of freedom     1
 Full point group                 D3H     NOp  12
 Largest Abelian subgroup         C2V     NOp   4
 Largest concise Abelian subgroup C2      NOp   2
                         Standard orientation:                         
 ---------------------------------------------------------------------
 Center     Atomic      Atomic             Coordinates (Angstroms)
 Number     Number       Type             X           Y           Z
 ---------------------------------------------------------------------
      1          5           0        0.000000    0.000000    0.000000
      2          9           0        0.000000    1.302246    0.000000
      3          9           0        1.127778   -0.651123    0.000000
      4          9           0       -1.127778   -0.651123    0.000000
 ---------------------------------------------------------------------
 Rotational constants (GHZ):     10.4573744     10.4573744      5.2286872

 **********************************************************************

            Population analysis using the SCF density.

 **********************************************************************

 Orbital symmetries:
       Occupied  (E') (E') (A1') (A1') (A1') (E') (E') (A1') (E')
                 (E') (A2") (E') (E') (E") (E") (A2')
       Virtual   (A1') (A2") (E') (E') (A2") (A1') (E') (E') (A1')
                 (E") (E") (E') (E') (A2") (A2') (A1') (E') (E')
                 (E') (E') (A2") (E') (E') (A1') (E") (E") (A1')
                 (E') (E') (A1') (E") (E") (A2") (A2') (E') (E')
                 (E') (E') (E") (E") (A1") (A1') (E') (E') (E')
                 (E') (A2') (A1') (A2") (E") (E") (E') (E') (E')
                 (E') (A1') (A1') (A1') (E') (E')
 The electronic state is 1-A1'.
 Alpha  occ. eigenvalues --  -26.35759 -26.35759 -26.35757  -7.78894  -1.69690
 Alpha  occ. eigenvalues --   -1.65260  -1.65260  -0.86347  -0.81969  -0.81969
 Alpha  occ. eigenvalues --   -0.76911  -0.70481  -0.70481  -0.69062  -0.69062
 Alpha  occ. eigenvalues --   -0.66452
 Alpha virt. eigenvalues --    0.05149   0.06895   0.07979   0.07979   0.21396
 Alpha virt. eigenvalues --    0.29476   0.29730   0.29730   0.34280   0.34328
 Alpha virt. eigenvalues --    0.34328   0.36817   0.36817   0.37274   0.42634
 Alpha virt. eigenvalues --    0.48461   0.48656   0.48656   0.63283   0.63283
 Alpha virt. eigenvalues --    0.73315   0.93078   0.93078   1.08486   1.41251
 Alpha virt. eigenvalues --    1.41251   1.74128   1.76617   1.76617   1.78416
 Alpha virt. eigenvalues --    1.80476   1.80476   1.85413   1.89365   1.91204
 Alpha virt. eigenvalues --    1.91204   1.97559   1.97559   2.08683   2.08683
 Alpha virt. eigenvalues --    2.09384   2.14565   2.15980   2.15980   2.18970
 Alpha virt. eigenvalues --    2.18970   2.24713   2.32601   2.45163   2.81145
 Alpha virt. eigenvalues --    2.81145   3.30091   3.30091   3.50726   3.50726
 Alpha virt. eigenvalues --    3.79881   4.15625   5.41055   5.53910   5.53910
          Condensed to atoms (all electrons):
              1          2          3          4
     1  B    2.619125   0.300356   0.300356   0.300356
     2  F    0.300356   9.321834  -0.064461  -0.064461
     3  F    0.300356  -0.064461   9.321834  -0.064461
     4  F    0.300356  -0.064461  -0.064461   9.321834
 Mulliken atomic charges:
              1
     1  B    1.479806
     2  F   -0.493269
     3  F   -0.493269
     4  F   -0.493269
 Sum of Mulliken atomic charges =   0.00000
 Mulliken charges with hydrogens summed into heavy atoms:
              1
     1  B    1.479806
     2  F   -0.493269
     3  F   -0.493269
     4  F   -0.493269
 Sum of Mulliken charges with hydrogens summed into heavy atoms =   0.00000
 Electronic spatial extent (au):  <R**2>=            209.6177
 Charge=              0.0000 electrons
 Dipole moment (field-independent basis, Debye):
    X=              0.0000    Y=              0.0000    Z=              0.0000  Tot=              0.0000
 Quadrupole moment (field-independent basis, Debye-Ang):
   XX=            -22.2694   YY=            -22.2694   ZZ=            -17.4758
   XY=              0.0000   XZ=              0.0000   YZ=              0.0000
 Traceless Quadrupole moment (field-independent basis, Debye-Ang):
   XX=             -1.5979   YY=             -1.5979   ZZ=              3.1957
   XY=              0.0000   XZ=              0.0000   YZ=              0.0000
 Octapole moment (field-independent basis, Debye-Ang**2):
  XXX=              0.0000  YYY=             -2.2005  ZZZ=              0.0000  XYY=              0.0000
  XXY=              2.2005  XXZ=              0.0000  XZZ=              0.0000  YZZ=              0.0000
  YYZ=              0.0000  XYZ=              0.0000
 Hexadecapole moment (field-independent basis, Debye-Ang**3):
 XXXX=            -91.7024 YYYY=            -91.7024 ZZZZ=            -11.0773 XXXY=              0.0000
 XXXZ=              0.0000 YYYX=              0.0000 YYYZ=              0.0000 ZZZX=              0.0000
 ZZZY=              0.0000 XXYY=            -30.5675 XXZZ=            -16.7691 YYZZ=            -16.7691
 XXYZ=              0.0000 YYXZ=              0.0000 ZZXY=              0.0000
 N-N= 1.118685800644D+02 E-N=-9.953319421238D+02  KE= 3.223591681238D+02
 Symmetry A1   KE= 2.035491813879D+02
 Symmetry A2   KE= 6.289925537827D+00
 Symmetry B1   KE= 1.009563796865D+02
 Symmetry B2   KE= 1.156368151150D+01
 1|1|UNPC-LAPTOP-7BBBEH3F|FOpt|RHF|6-31+G(d)|B1F3|SAIF_|03-Aug-2025|0||
 # opt freq hf/6-31+g(d) geom=connectivity||Title Card Required||0,1|B,
 -3.4839924156,-0.1412429372,0.|F,-4.1351155004,0.9865353277,0.|F,-4.13
 51155004,-1.2690212021,0.|F,-2.181746246,-0.1412429372,0.||Version=IA3
 2W-G09RevA.02|State=1-A1'|HF=-323.2089338|RMSD=9.646e-009|RMSF=4.939e-
 006|Dipole=0.,0.,0.|Quadrupole=-1.1879744,-1.1879744,2.3759488,0.,0.,0
 .|PG=D03H [O(B1),3C2(F1)]||@


 THERE IS NO CURE FOR BIRTH AND DEATH SAVE TO ENJOY THE INTERVAL.

                               -- GEORGE SANTAYANA
 Job cpu time:  0 days  0 hours  0 minutes  4.0 seconds.
 File lengths (MBytes):  RWF=      5 Int=      0 D2E=      0 Chk=      1 Scr=      1
 Normal termination of Gaussian 09 at Sun Aug 03 05:29:14 2025.
 Link1:  Proceeding to internal job step number  2.
 ------------------------------------------------------------------
 #N Geom=AllCheck Guess=TCheck SCRF=Check GenChk RHF/6-31+G(d) Freq
 ------------------------------------------------------------------
 1/10=4,29=7,30=1,38=1,40=1/1,3;
 2/12=2,40=1/2;
 3/5=1,6=6,7=11,11=1,14=-4,16=1,25=1,30=1,70=2,71=2,116=1/1,2,3;
 4/5=101/1;
 5/5=2,98=1/2;
 8/6=4,10=90,11=11/1;
 10/13=10,15=4/2;
 11/6=3,8=1,9=11,15=111,16=1/1,2,10;
 10/6=1/2;
 6/7=2,8=2,9=2,10=2,18=1,28=1/1;
 7/8=1,10=1,25=1/1,2,3,16;
 1/10=4,30=1/3;
 99//99;
 -------------------
 Title Card Required
 -------------------
 Redundant internal coordinates taken from checkpoint file:
 C:\Users\saif_\Desktop\downs\GV\BF3.chk
 Charge =  0 Multiplicity = 1
 B,0,-3.4839924156,-0.1412429372,0.
 F,0,-4.1351155004,0.9865353277,0.
 F,0,-4.1351155004,-1.2690212021,0.
 F,0,-2.181746246,-0.1412429372,0.
 Recover connectivity data from disk.

 GradGradGradGradGradGradGradGradGradGradGradGradGradGradGradGradGradGrad
 Berny optimization.
 Initialization pass.
                           ----------------------------
                           !    Initial Parameters    !
                           ! (Angstroms and Degrees)  !
 --------------------------                            --------------------------
 ! Name  Definition              Value          Derivative Info.                !
 --------------------------------------------------------------------------------
 ! R1    R(1,2)                  1.3022         calculate D2E/DX2 analytically  !
 ! R2    R(1,3)                  1.3022         calculate D2E/DX2 analytically  !
 ! R3    R(1,4)                  1.3022         calculate D2E/DX2 analytically  !
 ! A1    A(2,1,3)              120.0            calculate D2E/DX2 analytically  !
 ! A2    A(2,1,4)              120.0            calculate D2E/DX2 analytically  !
 ! A3    A(3,1,4)              120.0            calculate D2E/DX2 analytically  !
 ! D1    D(2,1,4,3)            180.0            calculate D2E/DX2 analytically  !
 --------------------------------------------------------------------------------
 Trust Radius=3.00D-01 FncErr=1.00D-07 GrdErr=1.00D-07
 Number of steps in this run=   2 maximum allowed number of steps=   2.
 GradGradGradGradGradGradGradGradGradGradGradGradGradGradGradGradGradGrad

                          Input orientation:                          
 ---------------------------------------------------------------------
 Center     Atomic      Atomic             Coordinates (Angstroms)
 Number     Number       Type             X           Y           Z
 ---------------------------------------------------------------------
      1          5           0       -3.483992   -0.141243    0.000000
      2          9           0       -4.135116    0.986535    0.000000
      3          9           0       -4.135116   -1.269021    0.000000
      4          9           0       -2.181746   -0.141243    0.000000
 ---------------------------------------------------------------------
                    Distance matrix (angstroms):
                    1          2          3          4
     1  B    0.000000
     2  F    1.302246   0.000000
     3  F    1.302246   2.255557   0.000000
     4  F    1.302246   2.255557   2.255557   0.000000
 Stoichiometry    BF3
 Framework group  D3H[O(B),3C2(F)]
 Deg. of freedom     1
 Full point group                 D3H     NOp  12
 Largest Abelian subgroup         C2V     NOp   4
 Largest concise Abelian subgroup C2      NOp   2
                         Standard orientation:                         
 ---------------------------------------------------------------------
 Center     Atomic      Atomic             Coordinates (Angstroms)
 Number     Number       Type             X           Y           Z
 ---------------------------------------------------------------------
      1          5           0        0.000000    0.000000    0.000000
      2          9           0        0.000000    1.302246    0.000000
      3          9           0        1.127778   -0.651123    0.000000
      4          9           0       -1.127778   -0.651123    0.000000
 ---------------------------------------------------------------------
 Rotational constants (GHZ):     10.4573744     10.4573744      5.2286872
 Standard basis: 6-31+G(d) (6D, 7F)
 There are    34 symmetry adapted basis functions of A1  symmetry.
 There are     7 symmetry adapted basis functions of A2  symmetry.
 There are    22 symmetry adapted basis functions of B1  symmetry.
 There are    13 symmetry adapted basis functions of B2  symmetry.
 Integral buffers will be    262144 words long.
 Raffenetti 1 integral format.
 Two-electron integral symmetry is turned on.
    76 basis functions,   128 primitive gaussians,    76 cartesian basis functions
    16 alpha electrons       16 beta electrons
       nuclear repulsion energy       111.8685800644 Hartrees.
 NAtoms=    4 NActive=    4 NUniq=    2 SFac= 3.00D+00 NAtFMM=   80 NAOKFM=F Big=F
 One-electron integrals computed using PRISM.
 NBasis=    76 RedAO= T  NBF=    34     7    22    13
 NBsUse=    76 1.00D-06 NBFU=    34     7    22    13
 Initial guess read from the checkpoint file:  C:\Users\saif_\Desktop\downs\GV\BF
 3.chk
 B after Tr=     0.000000    0.000000    0.000000
         Rot=    1.000000    0.000000    0.000000    0.000000 Ang=   0.00 deg.
 Initial guess orbital symmetries:
       Occupied  (E') (E') (A1') (A1') (A1') (E') (E') (A1') (E')
                 (E') (A2") (E') (E') (E") (E") (A2')
       Virtual   (A1') (A2") (E') (E') (A2") (A1') (E') (E') (A1')
                 (E") (E") (E') (E') (A2") (A2') (A1') (E') (E')
                 (E') (E') (A2") (E') (E') (A1') (E") (E") (A1')
                 (E') (E') (A1') (E") (E") (A2") (A2') (E') (E')
                 (E') (E') (E") (E") (A1") (A1') (E') (E') (E')
                 (E') (A2') (A1') (A2") (E") (E") (E') (E') (E')
                 (E') (A1') (A1') (A1') (E') (E')
 Requested convergence on RMS density matrix=1.00D-08 within 128 cycles.
 Requested convergence on MAX density matrix=1.00D-06.
 Requested convergence on             energy=1.00D-06.
 No special actions if energy rises.
 Keep R1 ints in memory in canonical form, NReq=5138753.
 SCF Done:  E(RHF) =  -323.208933830     A.U. after    1 cycles
             Convg  =    0.1014D-08             -V/T =  2.0026
 Range of M.O.s used for correlation:     1    76
 NBasis=    76 NAE=    16 NBE=    16 NFC=     0 NFV=     0
 NROrb=     76 NOA=    16 NOB=    16 NVA=    60 NVB=    60

 **** Warning!!: The largest alpha MO coefficient is  0.11270142D+02

          Differentiating once with respect to electric field.
                with respect to dipole field.
          Electric field/nuclear overlap derivatives assumed to be zero.
          Keep R1 ints in memory in canonical form, NReq=5102870.
          There are     3 degrees of freedom in the 1st order CPHF.  IDoFFX=0.
      3 vectors produced by pass  0 Test12= 3.20D-14 3.33D-08 XBig12= 2.04D+00 6.75D-01.
 AX will form     3 AO Fock derivatives at one time.
      3 vectors produced by pass  1 Test12= 3.20D-14 3.33D-08 XBig12= 1.17D-01 7.33D-02.
      3 vectors produced by pass  2 Test12= 3.20D-14 3.33D-08 XBig12= 1.26D-02 2.87D-02.
      3 vectors produced by pass  3 Test12= 3.20D-14 3.33D-08 XBig12= 3.41D-04 5.02D-03.
      3 vectors produced by pass  4 Test12= 3.20D-14 3.33D-08 XBig12= 5.03D-06 6.73D-04.
      3 vectors produced by pass  5 Test12= 3.20D-14 3.33D-08 XBig12= 1.05D-07 7.84D-05.
      3 vectors produced by pass  6 Test12= 3.20D-14 3.33D-08 XBig12= 2.67D-09 1.05D-05.
      2 vectors produced by pass  7 Test12= 3.20D-14 3.33D-08 XBig12= 2.13D-11 1.53D-06.
      2 vectors produced by pass  8 Test12= 3.20D-14 3.33D-08 XBig12= 4.13D-13 3.03D-07.
 Inverted reduced A of dimension    25 with in-core refinement.
 End of Minotr Frequency-dependent properties file   721 does not exist.
 End of Minotr Frequency-dependent properties file   722 does not exist.
 Symmetrizing basis deriv contribution to polar:
 IMax=3 JMax=2 DiffMx= 0.00D+00
 G2DrvN: will do     5 centers at a time, making    1 passes doing MaxLOS=2.
 Calling FoFCou, ICntrl=  3107 FMM=F I1Cent=   0 AccDes= 0.00D+00.
 FoFDir/FoFCou used for L=0 through L=2.
 End of G2Drv Frequency-dependent properties file   721 does not exist.
 End of G2Drv Frequency-dependent properties file   722 does not exist.
          IDoAtm=1111
          Differentiating once with respect to electric field.
                with respect to dipole field.
          Differentiating once with respect to nuclear coordinates.
          Keep R1 ints in memory in canonical form, NReq=5102918.
          There are     9 degrees of freedom in the 1st order CPHF.  IDoFFX=4.
 Will reuse    3 saved solutions.
      6 vectors produced by pass  0 Test12= 1.07D-14 1.11D-08 XBig12= 6.58D-02 8.47D-02.
 AX will form     6 AO Fock derivatives at one time.
      6 vectors produced by pass  1 Test12= 1.07D-14 1.11D-08 XBig12= 5.01D-03 3.59D-02.
      6 vectors produced by pass  2 Test12= 1.07D-14 1.11D-08 XBig12= 3.73D-04 7.81D-03.
      6 vectors produced by pass  3 Test12= 1.07D-14 1.11D-08 XBig12= 1.04D-05 1.48D-03.
      6 vectors produced by pass  4 Test12= 1.07D-14 1.11D-08 XBig12= 2.53D-07 1.26D-04.
      6 vectors produced by pass  5 Test12= 1.07D-14 1.11D-08 XBig12= 3.71D-09 1.44D-05.
      6 vectors produced by pass  6 Test12= 1.07D-14 1.11D-08 XBig12= 8.28D-11 2.09D-06.
      3 vectors produced by pass  7 Test12= 1.07D-14 1.11D-08 XBig12= 1.53D-12 3.27D-07.
      2 vectors produced by pass  8 Test12= 1.07D-14 1.11D-08 XBig12= 2.33D-14 3.61D-08.
 Inverted reduced A of dimension    47 with in-core refinement.
 Isotropic polarizability for W=    0.000000       11.58 Bohr**3.
 End of Minotr Frequency-dependent properties file   721 does not exist.
 End of Minotr Frequency-dependent properties file   722 does not exist.

 **********************************************************************

            Population analysis using the SCF density.

 **********************************************************************

 Orbital symmetries:
       Occupied  (E') (E') (A1') (A1') (A1') (E') (E') (A1') (E')
                 (E') (A2") (E') (E') (E") (E") (A2')
       Virtual   (A1') (A2") (E') (E') (A2") (A1') (E') (E') (A1')
                 (E") (E") (E') (E') (A2") (A2') (A1') (E') (E')
                 (E') (E') (A2") (E') (E') (A1') (E") (E") (A1')
                 (E') (E') (A1') (E") (E") (A2") (A2') (E') (E')
                 (E') (E') (E") (E") (A1") (A1') (E') (E') (E')
                 (E') (A2') (A1') (A2") (E") (E") (E') (E') (E')
                 (E') (A1') (A1') (A1') (E') (E')
 The electronic state is 1-A1'.
 Alpha  occ. eigenvalues --  -26.35759 -26.35759 -26.35757  -7.78894  -1.69690
 Alpha  occ. eigenvalues --   -1.65260  -1.65260  -0.86347  -0.81969  -0.81969
 Alpha  occ. eigenvalues --   -0.76911  -0.70481  -0.70481  -0.69062  -0.69062
 Alpha  occ. eigenvalues --   -0.66452
 Alpha virt. eigenvalues --    0.05149   0.06895   0.07979   0.07979   0.21396
 Alpha virt. eigenvalues --    0.29476   0.29730   0.29730   0.34280   0.34328
 Alpha virt. eigenvalues --    0.34328   0.36817   0.36817   0.37274   0.42634
 Alpha virt. eigenvalues --    0.48461   0.48656   0.48656   0.63283   0.63283
 Alpha virt. eigenvalues --    0.73315   0.93078   0.93078   1.08486   1.41251
 Alpha virt. eigenvalues --    1.41251   1.74128   1.76617   1.76617   1.78416
 Alpha virt. eigenvalues --    1.80476   1.80476   1.85413   1.89365   1.91204
 Alpha virt. eigenvalues --    1.91204   1.97559   1.97559   2.08683   2.08683
 Alpha virt. eigenvalues --    2.09384   2.14565   2.15980   2.15980   2.18970
 Alpha virt. eigenvalues --    2.18970   2.24713   2.32601   2.45163   2.81145
 Alpha virt. eigenvalues --    2.81145   3.30091   3.30091   3.50726   3.50726
 Alpha virt. eigenvalues --    3.79881   4.15625   5.41055   5.53910   5.53910
          Condensed to atoms (all electrons):
              1          2          3          4
     1  B    2.619125   0.300356   0.300356   0.300356
     2  F    0.300356   9.321834  -0.064461  -0.064461
     3  F    0.300356  -0.064461   9.321834  -0.064461
     4  F    0.300356  -0.064461  -0.064461   9.321834
 Mulliken atomic charges:
              1
     1  B    1.479806
     2  F   -0.493269
     3  F   -0.493269
     4  F   -0.493269
 Sum of Mulliken atomic charges =   0.00000
 Mulliken charges with hydrogens summed into heavy atoms:
              1
     1  B    1.479806
     2  F   -0.493269
     3  F   -0.493269
     4  F   -0.493269
 Sum of Mulliken charges with hydrogens summed into heavy atoms =   0.00000
 APT atomic charges:
              1
     1  B    1.932536
     2  F   -0.644179
     3  F   -0.644179
     4  F   -0.644179
 Sum of APT charges=   0.00000
 APT Atomic charges with hydrogens summed into heavy atoms:
              1
     1  B    1.932536
     2  F   -0.644179
     3  F   -0.644179
     4  F   -0.644179
 Sum of APT charges=   0.00000
 Electronic spatial extent (au):  <R**2>=            209.6177
 Charge=              0.0000 electrons
 Dipole moment (field-independent basis, Debye):
    X=              0.0000    Y=              0.0000    Z=              0.0000  Tot=              0.0000
 Quadrupole moment (field-independent basis, Debye-Ang):
   XX=            -22.2694   YY=            -22.2694   ZZ=            -17.4758
   XY=              0.0000   XZ=              0.0000   YZ=              0.0000
 Traceless Quadrupole moment (field-independent basis, Debye-Ang):
   XX=             -1.5979   YY=             -1.5979   ZZ=              3.1957
   XY=              0.0000   XZ=              0.0000   YZ=              0.0000
 Octapole moment (field-independent basis, Debye-Ang**2):
  XXX=              0.0000  YYY=             -2.2005  ZZZ=              0.0000  XYY=              0.0000
  XXY=              2.2005  XXZ=              0.0000  XZZ=              0.0000  YZZ=              0.0000
  YYZ=              0.0000  XYZ=              0.0000
 Hexadecapole moment (field-independent basis, Debye-Ang**3):
 XXXX=            -91.7024 YYYY=            -91.7024 ZZZZ=            -11.0773 XXXY=              0.0000
 XXXZ=              0.0000 YYYX=              0.0000 YYYZ=              0.0000 ZZZX=              0.0000
 ZZZY=              0.0000 XXYY=            -30.5675 XXZZ=            -16.7691 YYZZ=            -16.7691
 XXYZ=              0.0000 YYXZ=              0.0000 ZZXY=              0.0000
 N-N= 1.118685800644D+02 E-N=-9.953319421181D+02  KE= 3.223591681248D+02
 Symmetry A1   KE= 2.035491813051D+02
 Symmetry A2   KE= 6.289925599673D+00
 Symmetry B1   KE= 1.009563795505D+02
 Symmetry B2   KE= 1.156368166952D+01
  Exact polarizability:  12.748   0.000  12.748   0.000   0.000   9.246
 Approx polarizability:  10.702   0.000  10.702   0.000   0.000   8.563
 Calling FoFJK, ICntrl=    100127 FMM=F ISym2X=1 I1Cent= 0 IOpClX= 0 NMat=1 NMatS=1 NMatT=0.
 Full mass-weighted force constant matrix:
 Low frequencies ---   -0.0032   -0.0016   -0.0006    2.3563    2.3596    2.3596
 Low frequencies ---  503.6583  503.6583  741.0528
 Diagonal vibrational polarizability:
        8.0400380       8.0400383       8.1370272
 Diagonal vibrational hyperpolarizability:
        0.0000000       6.1438837       0.0000000
 Harmonic frequencies (cm**-1), IR intensities (KM/Mole), Raman scattering
 activities (A**4/AMU), depolarization ratios for plane and unpolarized
 incident light, reduced masses (AMU), force constants (mDyne/A),
 and normal coordinates:
                     1                      2                      3
                    E'                     E'                     A2"
 Frequencies --   503.6583               503.6583               741.0528
 Red. masses --    17.8839                17.8839                11.8135
 Frc consts  --     2.6729                 2.6729                 3.8223
 IR Inten    --    18.5402                18.5402               166.0470
 Raman Activ --     0.5320                 0.5320                 0.0000
 Depolar (P) --     0.7500                 0.7500                 0.0000
 Depolar (U) --     0.8571                 0.8571                 0.0000
  Atom  AN      X      Y      Z        X      Y      Z        X      Y      Z
     1   5    -0.37   0.00   0.00     0.00   0.37   0.00     0.00   0.00   0.95
     2   9     0.60   0.00   0.00     0.00   0.46   0.00     0.00   0.00  -0.18
     3   9    -0.19   0.46   0.00    -0.46  -0.34   0.00     0.00   0.00  -0.18
     4   9    -0.19  -0.46   0.00     0.46  -0.34   0.00     0.00   0.00  -0.18
                     4                      5                      6
                    A1'                    E'                     E'
 Frequencies --   935.8121              1544.0662              1544.0662
 Red. masses --    18.9984                12.2898                12.2898
 Frc consts  --     9.8027                17.2634                17.2634
 IR Inten    --     0.0000               538.0396               538.0396
 Raman Activ --     2.6001                 0.0950                 0.0950
 Depolar (P) --     0.0479                 0.7500                 0.7500
 Depolar (U) --     0.0914                 0.8571                 0.8571
  Atom  AN      X      Y      Z        X      Y      Z        X      Y      Z
     1   5     0.00   0.00   0.00     0.92   0.00   0.00     0.00   0.92   0.00
     2   9     0.00   0.58   0.00    -0.03   0.00   0.00     0.00  -0.33   0.00
     3   9     0.50  -0.29   0.00    -0.25   0.13   0.00     0.13  -0.10   0.00
     4   9    -0.50  -0.29   0.00    -0.25  -0.13   0.00    -0.13  -0.10   0.00

 -------------------
 - Thermochemistry -
 -------------------
 Temperature   298.150 Kelvin.  Pressure   1.00000 Atm.
 Atom     1 has atomic number  5 and mass  11.00931
 Atom     2 has atomic number  9 and mass  18.99840
 Atom     3 has atomic number  9 and mass  18.99840
 Atom     4 has atomic number  9 and mass  18.99840
 Molecular mass:    68.00452 amu.
 Principal axes and moments of inertia in atomic units:
                           1         2         3
     Eigenvalues --   172.58072 172.58072 345.16144
           X           -0.59539   0.80343   0.00000
           Y            0.80343   0.59539   0.00000
           Z            0.00000   0.00000   1.00000
 This molecule is an oblate symmetric top.
 Rotational symmetry number  6.
 Rotational temperatures (Kelvin)      0.50187     0.50187     0.25094
 Rotational constants (GHZ):          10.45737    10.45737     5.22869
 Zero-point vibrational energy      34526.1 (Joules/Mol)
                                    8.25194 (Kcal/Mol)
 Warning -- explicit consideration of   2 degrees of freedom as
           vibrations may cause significant error
 Vibrational temperatures:    724.65   724.65  1066.21  1346.42  2221.56
          (Kelvin)           2221.56
 
 Zero-point correction=                           0.013150 (Hartree/Particle)
 Thermal correction to Energy=                    0.016578
 Thermal correction to Enthalpy=                  0.017522
 Thermal correction to Gibbs Free Energy=        -0.011248
 Sum of electronic and zero-point Energies=           -323.195784
 Sum of electronic and thermal Energies=              -323.192356
 Sum of electronic and thermal Enthalpies=            -323.191411
 Sum of electronic and thermal Free Energies=         -323.220182
 
                     E (Thermal)             CV                S
                      KCal/Mol        Cal/Mol-Kelvin    Cal/Mol-Kelvin
 Total                   10.403              9.779             60.553
 Electronic               0.000              0.000              0.000
 Translational            0.889              2.981             38.569
 Rotational               0.889              2.981             20.285
 Vibrational              8.626              3.818              1.700
 Vibration     1          0.859              1.242              0.649
 Vibration     2          0.859              1.242              0.649
                       Q            Log10(Q)             Ln(Q)
 Total Bot       0.149233D+06          5.173866         11.913267
 Total V=0       0.166944D+12         11.222571         25.840924
 Vib (Bot)       0.111920D-05         -5.951094        -13.702901
 Vib (Bot)    1  0.325258D+00         -0.487772         -1.123137
 Vib (Bot)    2  0.325258D+00         -0.487772         -1.123137
 Vib (V=0)       0.125202D+01          0.097610          0.224756
 Vib (V=0)    1  0.109648D+01          0.040002          0.092108
 Vib (V=0)    2  0.109648D+01          0.040002          0.092108
 Electronic      0.100000D+01          0.000000          0.000000
 Translational   0.220425D+08          7.343262         16.908485
 Rotational      0.604921D+04          3.781699          8.707683
 ***** Axes restored to original set *****
 -------------------------------------------------------------------
 Center     Atomic                   Forces (Hartrees/Bohr)
 Number     Number              X              Y              Z
 -------------------------------------------------------------------
      1        5           0.000000000    0.000000000    0.000000000
      2        9           0.000004939   -0.000008554    0.000000000
      3        9           0.000004939    0.000008554    0.000000000
      4        9          -0.000009877    0.000000000    0.000000000
 -------------------------------------------------------------------
 Cartesian Forces:  Max     0.000009877 RMS     0.000004939

 GradGradGradGradGradGradGradGradGradGradGradGradGradGradGradGradGradGrad
 Berny optimization.
 Internal  Forces:  Max     0.000009877 RMS     0.000006466
 Search for a local minimum.
 Step number   1 out of a maximum of    2
 All quantities printed in internal units (Hartrees-Bohrs-Radians)
 Second derivative matrix not updated -- analytic derivatives used.
 The second derivative matrix:
                          R1        R2        R3        A1        A2
           R1           0.53162
           R2           0.04900   0.53162
           R3           0.04900   0.04900   0.53162
           A1           0.02066   0.02066  -0.04132   0.14643
           A2           0.02066  -0.04132   0.02066  -0.07321   0.14643
           A3          -0.04132   0.02066   0.02066  -0.07321  -0.07321
           D1           0.00000   0.00000   0.00000   0.00000   0.00000
                          A3        D1
           A3           0.14643
           D1           0.00000   0.09677
     Eigenvalues ---    0.09677   0.20577   0.20577   0.49649   0.49649
     Eigenvalues ---    0.629631000.00000
 Angle between quadratic step and forces=   0.00 degrees.
 Linear search not attempted -- first point.
 Iteration  1 RMS(Cart)=  0.00001027 RMS(Int)=  0.00000000
 Iteration  2 RMS(Cart)=  0.00000000 RMS(Int)=  0.00000000
 ClnCor:  largest displacement from symmetrization is 6.70D-14 for atom     1.
 Variable       Old X    -DE/DX   Delta X   Delta X   Delta X     New X
                                 (Linear)    (Quad)   (Total)
    R1        2.46089  -0.00001   0.00000  -0.00002  -0.00002   2.46087
    R2        2.46089  -0.00001   0.00000  -0.00002  -0.00002   2.46087
    R3        2.46089  -0.00001   0.00000  -0.00002  -0.00002   2.46087
    A1        2.09440   0.00000   0.00000   0.00000   0.00000   2.09440
    A2        2.09440   0.00000   0.00000   0.00000   0.00000   2.09440
    A3        2.09440   0.00000   0.00000   0.00000   0.00000   2.09440
    D1        3.14159   0.00000   0.00000   0.00000   0.00000   3.14159
         Item               Value     Threshold  Converged?
 Maximum Force            0.000010     0.000450     YES
 RMS     Force            0.000006     0.000300     YES
 Maximum Displacement     0.000016     0.001800     YES
 RMS     Displacement     0.000010     0.001200     YES
 Predicted change in Energy=-2.324173D-10
 Optimization completed.
    -- Stationary point found.
                           ----------------------------
                           !   Optimized Parameters   !
                           ! (Angstroms and Degrees)  !
 --------------------------                            --------------------------
 ! Name  Definition              Value          Derivative Info.                !
 --------------------------------------------------------------------------------
 ! R1    R(1,2)                  1.3022         -DE/DX =    0.0                 !
 ! R2    R(1,3)                  1.3022         -DE/DX =    0.0                 !
 ! R3    R(1,4)                  1.3022         -DE/DX =    0.0                 !
 ! A1    A(2,1,3)              120.0            -DE/DX =    0.0                 !
 ! A2    A(2,1,4)              120.0            -DE/DX =    0.0                 !
 ! A3    A(3,1,4)              120.0            -DE/DX =    0.0                 !
 ! D1    D(2,1,4,3)            180.0            -DE/DX =    0.0                 !
 --------------------------------------------------------------------------------
 GradGradGradGradGradGradGradGradGradGradGradGradGradGradGradGradGradGrad

 1|1|UNPC-LAPTOP-7BBBEH3F|Freq|RHF|6-31+G(d)|B1F3|SAIF_|03-Aug-2025|0||
 #N Geom=AllCheck Guess=TCheck SCRF=Check GenChk RHF/6-31+G(d) Freq||Ti
 tle Card Required||0,1|B,-3.4839924156,-0.1412429372,0.|F,-4.135115500
 4,0.9865353277,0.|F,-4.1351155004,-1.2690212021,0.|F,-2.181746246,-0.1
 412429372,0.||Version=IA32W-G09RevA.02|State=1-A1'|HF=-323.2089338|RMS
 D=1.014e-009|RMSF=4.939e-006|ZeroPoint=0.0131503|Thermal=0.0165782|Dip
 ole=0.,0.,0.|DipoleDeriv=2.2719885,0.,0.,0.,2.2719885,0.,0.,0.,1.25363
 22,-0.6224939,0.233542,0.,0.233542,-0.892165,0.,0.,0.,-0.4178774,-0.62
 24939,-0.233542,0.,-0.233542,-0.892165,0.,0.,0.,-0.4178774,-1.0270005,
 0.,0.,0.,-0.4876584,0.,0.,0.,-0.4178774|Polar=12.7479961,0.,12.7479961
 ,0.,0.,9.2456343|PolarDeriv=-0.1383416,-0.0000003,0.1383417,0.,0.,-0.0
 000001,0.0000002,0.1383419,-0.0000003,0.,0.,0.0000002,0.,0.,0.,0.,0.,0
 .,-2.0471234,1.3411167,-0.5907632,0.,0.,-0.4246871,0.9433601,-0.820408
 1,3.6255936,0.,0.,0.7355797,0.,0.,0.,-0.4744036,0.8216911,0.,-2.047123
 4,-1.3411167,-0.5907632,0.,0.,-0.4246871,-0.9433601,-0.8204081,-3.6255
 936,0.,0.,-0.7355797,0.,0.,0.,-0.4744036,-0.8216911,0.,4.2325888,0.,1.
 0431844,0.,0.,0.8493742,0.,1.5024742,0.,0.,0.,0.,0.,0.,0.,0.9488071,0.
 ,0.|HyperPolar=-5.3823051,0.,5.3823051,0.,0.,0.,0.,0.,0.,0.|PG=D03H [O
 (B1),3C2(F1)]|NImag=0||0.75626953,0.,0.75626953,0.,0.,0.19175661,-0.15
 863805,0.16186326,0.,0.18731173,0.16186326,-0.34554164,0.,-0.19878760,
 0.41685188,0.,0.,-0.06391887,0.,0.,0.02130896,-0.15863805,-0.16186325,
 0.,0.01764060,0.00707859,0.,0.18731173,-0.16186325,-0.34554163,0.,-0.0
 0707859,-0.06763256,0.,0.19878760,0.41685188,0.,0.,-0.06391887,0.,0.,0
 .02130496,0.,0.,0.02130896,-0.43899343,0.,0.,-0.04631427,0.02984577,0.
 ,-0.04631427,-0.02984577,0.,0.53162195,0.,-0.06518626,0.,0.04400295,-0
 .00367769,0.,-0.04400295,-0.00367769,0.,0.,0.07254165,0.,0.,-0.0639188
 7,0.,0.,0.02130496,0.,0.,0.02130496,0.,0.,0.02130896||0.,0.,0.,-0.0000
 0494,0.00000855,0.,-0.00000494,-0.00000855,0.,0.00000988,0.,0.|||@


 THERE IS NO CURE FOR BIRTH AND DEATH SAVE TO ENJOY THE INTERVAL.

                               -- GEORGE SANTAYANA
 Job cpu time:  0 days  0 hours  0 minutes  3.0 seconds.
 File lengths (MBytes):  RWF=      6 Int=      0 D2E=      0 Chk=      1 Scr=      1
 Normal termination of Gaussian 09 at Sun Aug 03 05:29:17 2025.
