%chk=C:\Users\saif_\Desktop\downs\GV\bizzaro.chk
# opt freq hf/6-31+g(d,p) geom=connectivity

Title Card Required

0 1
 C                 -0.58356731    1.05648713    0.29854072
 C                  0.75185033    1.25042954    0.14015505
 C                  0.77559382    2.73518173   -0.06134008
 C                 -0.06061581    3.46638501    1.01279949
 N                 -1.12153677    2.31670593    0.65948670
 H                 -0.83650834    0.23242594    0.93245239
 H                  1.45791477    1.04995218    0.91873185
 H                  1.81961294    2.89495497   -0.23279439
 H                  0.48396726    4.24809576    0.52570856
 C                 -0.71836067   -1.63766404   -1.07580636
 C                  0.54418165   -1.17416132   -0.69825400
 C                  0.75461538    0.31127802   -1.08902996
 C                 -0.61873055    0.81844405   -1.24007998
 S                 -1.70741745   -0.37578272   -1.89690296
 H                 -1.06452480   -2.63258962   -0.88820706
 H                  1.27464993   -1.77005715   -0.19206802
 H                  1.49566399    0.34614693   -1.86008840
 H                 -0.69339675    1.74015515   -1.77838622
 C                 -1.22506256    3.87595157    0.22964101
 C                 -0.24765949    3.57328538   -1.00225886
 C                  0.28295008    4.99036781   -1.15392045
 C                 -0.47234623    5.85153521   -0.38168494
 O                 -1.65586525    5.23181669    0.22944811
 H                 -2.06453055    3.23516853    0.40166018
 H                 -0.52283577    3.17998826   -1.95855139
 H                  1.10967000    5.27751083   -1.76953644
 H                 -0.22080023    6.88262753   -0.24576866
 C                 -3.17333943    1.80281111   -1.47592863
 C                 -0.96811031    3.04999635   -2.25130806
 C                 -3.01423555    1.81526286   -2.83618396
 H                 -3.89438820    1.22764279   -0.93355415
 C                 -1.70187975    2.55747634   -3.29762068
 H                  0.02480914    3.44417669   -2.31158103
 H                 -3.70125758    1.35478960   -3.51505443
 H                 -1.40690469    2.65237952   -4.32177062
 P                 -1.95510853    2.90722125   -0.76141082

 1 2 1.0 5 1.0 6 1.0 13 1.0
 2 3 1.0 7 1.0 12 1.0
 3 4 1.0 8 1.0 20 1.0
 4 5 1.0 9 1.0 19 1.0
 5 36 1.0
 6
 7
 8
 9
 10 11 2.0 14 1.0 15 1.0
 11 12 1.0 16 1.0
 12 13 1.0 17 1.0
 13 14 1.0 18 1.0
 14
 15
 16
 17
 18
 19 20 1.0 23 1.0 24 1.0
 20 21 1.0 25 1.0
 21 22 2.0 26 1.0
 22 23 1.0 27 1.0
 23
 24
 25
 26
 27
 28 30 2.0 31 1.0 36 1.0
 29 32 2.0 33 1.0 36 1.0
 30 32 1.0 34 1.0
 31
 32 35 1.0
 33
 34
 35
 36

