 Entering Link 1 = C:\G09W\l1.exe PID=     13836.
  
 Copyright (c) 1988,1990,1992,1993,1995,1998,2003,2009, Gaussian, Inc.
                  All Rights Reserved.
  
 This is part of the Gaussian(R) 09 program.  It is based on
 the Gaussian(R) 03 system (copyright 2003, Gaussian, Inc.),
 the Gaussian(R) 98 system (copyright 1998, Gaussian, Inc.),
 the Gaussian(R) 94 system (copyright 1995, Gaussian, Inc.),
 the Gaussian 92(TM) system (copyright 1992, Gaussian, Inc.),
 the Gaussian 90(TM) system (copyright 1990, Gaussian, Inc.),
 the Gaussian 88(TM) system (copyright 1988, Gaussian, Inc.),
 the Gaussian 86(TM) system (copyright 1986, Carnegie Mellon
 University), and the Gaussian 82(TM) system (copyright 1983,
 Carnegie Mellon University). Gaussian is a federally registered
 trademark of Gaussian, Inc.
  
 This software contains proprietary and confidential information,
 including trade secrets, belonging to Gaussian, Inc.
  
 This software is provided under written license and may be
 used, copied, transmitted, or stored only in accord with that
 written license.
  
 The following legend is applicable only to US Government
 contracts under FAR:
  
                    RESTRICTED RIGHTS LEGEND
  
 Use, reproduction and disclosure by the US Government is
 subject to restrictions as set forth in subparagraphs (a)
 and (c) of the Commercial Computer Software - Restricted
 Rights clause in FAR 52.227-19.
  
 Gaussian, Inc.
 340 Quinnipiac St., Bldg. 40, Wallingford CT 06492
  
  
 ---------------------------------------------------------------
 Warning -- This program may not be used in any manner that
 competes with the business of Gaussian, Inc. or will provide
 assistance to any competitor of Gaussian, Inc.  The licensee
 of this program is prohibited from giving any competitor of
 Gaussian, Inc. access to this program.  By using this program,
 the user acknowledges that Gaussian, Inc. is engaged in the
 business of creating and licensing software in the field of
 computational chemistry and represents and warrants to the
 licensee that it is not a competitor of Gaussian, Inc. and that
 it will not use this program in any manner prohibited above.
 ---------------------------------------------------------------
  

 Cite this work as:
 Gaussian 09, Revision A.02,
 M. J. Frisch, G. W. Trucks, H. B. Schlegel, G. E. Scuseria, 
 M. A. Robb, J. R. Cheeseman, G. Scalmani, V. Barone, B. Mennucci, 
 G. A. Petersson, H. Nakatsuji, M. Caricato, X. Li, H. P. Hratchian, 
 A. F. Izmaylov, J. Bloino, G. Zheng, J. L. Sonnenberg, M. Hada, 
 M. Ehara, K. Toyota, R. Fukuda, J. Hasegawa, M. Ishida, T. Nakajima, 
 Y. Honda, O. Kitao, H. Nakai, T. Vreven, J. A. Montgomery, Jr., 
 J. E. Peralta, F. Ogliaro, M. Bearpark, J. J. Heyd, E. Brothers, 
 K. N. Kudin, V. N. Staroverov, R. Kobayashi, J. Normand, 
 K. Raghavachari, A. Rendell, J. C. Burant, S. S. Iyengar, J. Tomasi, 
 M. Cossi, N. Rega, J. M. Millam, M. Klene, J. E. Knox, J. B. Cross, 
 V. Bakken, C. Adamo, J. Jaramillo, R. Gomperts, R. E. Stratmann, 
 O. Yazyev, A. J. Austin, R. Cammi, C. Pomelli, J. W. Ochterski, 
 R. L. Martin, K. Morokuma, V. G. Zakrzewski, G. A. Voth, 
 P. Salvador, J. J. Dannenberg, S. Dapprich, A. D. Daniels, 
 O. Farkas, J. B. Foresman, J. V. Ortiz, J. Cioslowski, 
 and D. J. Fox, Gaussian, Inc., Wallingford CT, 2009.
 
 ******************************************
 Gaussian 09:  IA32W-G09RevA.02 11-Jun-2009
                09-May-2025 
 ******************************************
 %chk=C:\Users\saif_\Desktop\downs\GV\hfl.chk
 -------------------------------------
 # opt freq hf/3-21g geom=connectivity
 -------------------------------------
 1/18=20,19=15,38=1,57=2/1,3;
 2/9=110,12=2,17=6,18=5,40=1/2;
 3/5=5,11=9,16=1,25=1,30=1,71=1/1,2,3;
 4//1;
 5/5=2,38=5/2;
 6/7=2,8=2,9=2,10=2,28=1/1;
 7//1,2,3,16;
 1/18=20,19=15/3(2);
 2/9=110/2;
 99//99;
 2/9=110/2;
 3/5=5,11=9,16=1,25=1,30=1,71=1/1,2,3;
 4/5=5,16=3/1;
 5/5=2,38=5/2;
 7//1,2,3,16;
 1/18=20,19=15/3(-5);
 2/9=110/2;
 6/7=2,8=2,9=2,10=2,19=2,28=1/1;
 99/9=1/99;
 -------------------
 Title Card Required
 -------------------
 Symbolic Z-matrix:
 Charge =  0 Multiplicity = 1
 F                    -1.78082   3.19635   0. 
 H                    -2.66082   3.19635   0. 
 

 GradGradGradGradGradGradGradGradGradGradGradGradGradGradGradGradGradGrad
 Berny optimization.
 Initialization pass.
                           ----------------------------
                           !    Initial Parameters    !
                           ! (Angstroms and Degrees)  !
 --------------------------                            --------------------------
 ! Name  Definition              Value          Derivative Info.                !
 --------------------------------------------------------------------------------
 ! R1    R(1,2)                  0.88           estimate D2E/DX2                !
 --------------------------------------------------------------------------------
 Trust Radius=3.00D-01 FncErr=1.00D-07 GrdErr=1.00D-07
 Number of steps in this run=  20 maximum allowed number of steps= 100.
 GradGradGradGradGradGradGradGradGradGradGradGradGradGradGradGradGradGrad

                          Input orientation:                          
 ---------------------------------------------------------------------
 Center     Atomic      Atomic             Coordinates (Angstroms)
 Number     Number       Type             X           Y           Z
 ---------------------------------------------------------------------
      1          9           0       -1.780822    3.196347    0.000000
      2          1           0       -2.660822    3.196347    0.000000
 ---------------------------------------------------------------------
 Stoichiometry    FH
 Framework group  C*V[C*(HF)]
 Deg. of freedom     1
 Full point group                 C*V     NOp   4
 Largest Abelian subgroup         C2V     NOp   4
 Largest concise Abelian subgroup C1      NOp   1
                         Standard orientation:                         
 ---------------------------------------------------------------------
 Center     Atomic      Atomic             Coordinates (Angstroms)
 Number     Number       Type             X           Y           Z
 ---------------------------------------------------------------------
      1          9           0        0.000000    0.000000    0.088000
      2          1           0        0.000000    0.000000   -0.792000
 ---------------------------------------------------------------------
 Rotational constants (GHZ):      0.0000000    681.8907939    681.8907939
 Standard basis: 3-21G (6D, 7F)
 There are     7 symmetry adapted basis functions of A1  symmetry.
 There are     0 symmetry adapted basis functions of A2  symmetry.
 There are     2 symmetry adapted basis functions of B1  symmetry.
 There are     2 symmetry adapted basis functions of B2  symmetry.
 Integral buffers will be    262144 words long.
 Raffenetti 1 integral format.
 Two-electron integral symmetry is turned on.
    11 basis functions,    18 primitive gaussians,    11 cartesian basis functions
     5 alpha electrons        5 beta electrons
       nuclear repulsion energy         5.4120396333 Hartrees.
 NAtoms=    2 NActive=    2 NUniq=    2 SFac= 7.50D-01 NAtFMM=   80 NAOKFM=F Big=F
 One-electron integrals computed using PRISM.
 NBasis=    11 RedAO= T  NBF=     7     0     2     2
 NBsUse=    11 1.00D-06 NBFU=     7     0     2     2
 Harris functional with IExCor=  205 diagonalized for initial guess.
 ExpMin= 1.83D-01 ExpMax= 4.14D+02 ExpMxC= 4.14D+02 IAcc=1 IRadAn=         1 AccDes= 0.00D+00
 HarFok:  IExCor=  205 AccDes= 0.00D+00 IRadAn=         1 IDoV= 1
 ScaDFX=  1.000000  1.000000  1.000000  1.000000
 FoFCou: FMM=F IPFlag=           0 FMFlag=      100000 FMFlg1=           0
         NFxFlg=           0 DoJE=T BraDBF=F KetDBF=T FulRan=T
         Omega=  0.000000  0.000000  1.000000  0.000000  0.000000 ICntrl=     500 IOpCl=  0
         NMat0=    1 NMatS0=    1 NMatT0=    0 NMatD0=    1 NMtDS0=    0 NMtDT0=    0
         I1Cent=           4 NGrid=           0.
 Petite list used in FoFCou.
 Initial guess orbital symmetries:
       Occupied  (SG) (SG) (SG) (PI) (PI)
       Virtual   (SG) (SG) (PI) (PI) (SG) (SG)
 The electronic state of the initial guess is 1-SG.
 Requested convergence on RMS density matrix=1.00D-08 within 128 cycles.
 Requested convergence on MAX density matrix=1.00D-06.
 Requested convergence on             energy=1.00D-06.
 No special actions if energy rises.
 Keep R1 ints in memory in canonical form, NReq=821943.
 SCF Done:  E(RHF) =  -99.4561977694     A.U. after    8 cycles
             Convg  =    0.3792D-08             -V/T =  2.0009

 **********************************************************************

            Population analysis using the SCF density.

 **********************************************************************

 Orbital symmetries:
       Occupied  (SG) (SG) (SG) (PI) (PI)
       Virtual   (SG) (SG) (PI) (PI) (SG) (SG)
 The electronic state is 1-SG.
 Alpha  occ. eigenvalues --  -26.11221  -1.56778  -0.71987  -0.60189  -0.60189
 Alpha virt. eigenvalues --    0.28241   1.27244   2.23213   2.23213   2.40231
 Alpha virt. eigenvalues --    3.71008
          Condensed to atoms (all electrons):
              1          2
     1  F    9.236434   0.220285
     2  H    0.220285   0.322996
 Mulliken atomic charges:
              1
     1  F   -0.456719
     2  H    0.456719
 Sum of Mulliken atomic charges =   0.00000
 Mulliken charges with hydrogens summed into heavy atoms:
              1
     1  F    0.000000
 Sum of Mulliken charges with hydrogens summed into heavy atoms =   0.00000
 Electronic spatial extent (au):  <R**2>=             12.6357
 Charge=              0.0000 electrons
 Dipole moment (field-independent basis, Debye):
    X=              0.0000    Y=              0.0000    Z=             -2.1187  Tot=              2.1187
 Quadrupole moment (field-independent basis, Debye-Ang):
   XX=             -5.1189   YY=             -5.1189   ZZ=             -3.4100
   XY=              0.0000   XZ=              0.0000   YZ=              0.0000
 Traceless Quadrupole moment (field-independent basis, Debye-Ang):
   XX=             -0.5696   YY=             -0.5696   ZZ=              1.1393
   XY=              0.0000   XZ=              0.0000   YZ=              0.0000
 Octapole moment (field-independent basis, Debye-Ang**2):
  XXX=              0.0000  YYY=              0.0000  ZZZ=             -1.5977  XYY=              0.0000
  XXY=              0.0000  XXZ=             -0.1738  XZZ=              0.0000  YZZ=              0.0000
  YYZ=             -0.1738  XYZ=              0.0000
 Hexadecapole moment (field-independent basis, Debye-Ang**3):
 XXXX=             -2.3818 YYYY=             -2.3818 ZZZZ=             -2.4883 XXXY=              0.0000
 XXXZ=              0.0000 YYYX=              0.0000 YYYZ=              0.0000 ZZZX=              0.0000
 ZZZY=              0.0000 XXYY=             -0.7939 XXZZ=             -0.9938 YYZZ=             -0.9938
 XXYZ=              0.0000 YYXZ=              0.0000 ZZXY=              0.0000
 N-N= 5.412039633307D+00 E-N=-2.498988393310D+02  KE= 9.936964795834D+01
 Symmetry A1   KE= 8.664487356676D+01
 Symmetry A2   KE= 0.000000000000D+00
 Symmetry B1   KE= 6.362387195788D+00
 Symmetry B2   KE= 6.362387195788D+00
 Calling FoFJK, ICntrl=      2127 FMM=F ISym2X=1 I1Cent= 0 IOpClX= 0 NMat=1 NMatS=1 NMatT=0.
 ***** Axes restored to original set *****
 -------------------------------------------------------------------
 Center     Atomic                   Forces (Hartrees/Bohr)
 Number     Number              X              Y              Z
 -------------------------------------------------------------------
      1        9           0.079162913    0.000000000    0.000000000
      2        1          -0.079162913    0.000000000    0.000000000
 -------------------------------------------------------------------
 Cartesian Forces:  Max     0.079162913 RMS     0.045704729

 GradGradGradGradGradGradGradGradGradGradGradGradGradGradGradGradGradGrad
 Berny optimization.
 Internal  Forces:  Max     0.079162913 RMS     0.079162913
 Search for a local minimum.
 Step number   1 out of a maximum of   20
 All quantities printed in internal units (Hartrees-Bohrs-Radians)
 Mixed Optimization -- RFO/linear search
 Second derivative matrix not updated -- first step.
 The second derivative matrix:
                          R1
           R1           0.76963
     Eigenvalues ---    0.76963
 RFO step:  Lambda=-8.05820363D-03 EMin= 7.69629610D-01
 Linear search not attempted -- first point.
 Iteration  1 RMS(Cart)=  0.07197828 RMS(Int)=  0.00000000
 Iteration  2 RMS(Cart)=  0.00000000 RMS(Int)=  0.00000000
 ClnCor:  largest displacement from symmetrization is 0.00D+00 for atom     0.
 Variable       Old X    -DE/DX   Delta X   Delta X   Delta X     New X
                                 (Linear)    (Quad)   (Total)
    R1        1.66296   0.07916   0.00000   0.10179   0.10179   1.76475
         Item               Value     Threshold  Converged?
 Maximum Force            0.079163     0.000450     NO 
 RMS     Force            0.079163     0.000300     NO 
 Maximum Displacement     0.050896     0.001800     NO 
 RMS     Displacement     0.071978     0.001200     NO 
 Predicted change in Energy=-4.070850D-03
 GradGradGradGradGradGradGradGradGradGradGradGradGradGradGradGradGradGrad

                          Input orientation:                          
 ---------------------------------------------------------------------
 Center     Atomic      Atomic             Coordinates (Angstroms)
 Number     Number       Type             X           Y           Z
 ---------------------------------------------------------------------
      1          9           0       -1.753889    3.196347    0.000000
      2          1           0       -2.687755    3.196347    0.000000
 ---------------------------------------------------------------------
 Stoichiometry    FH
 Framework group  C*V[C*(HF)]
 Deg. of freedom     1
 Full point group                 C*V     NOp   4
 Largest Abelian subgroup         C2V     NOp   4
 Largest concise Abelian subgroup C1      NOp   1
                         Standard orientation:                         
 ---------------------------------------------------------------------
 Center     Atomic      Atomic             Coordinates (Angstroms)
 Number     Number       Type             X           Y           Z
 ---------------------------------------------------------------------
      1          9           0        0.000000    0.000000    0.093387
      2          1           0        0.000000    0.000000   -0.840480
 ---------------------------------------------------------------------
 Rotational constants (GHZ):      0.0000000    605.4952098    605.4952098
 Standard basis: 3-21G (6D, 7F)
 There are     7 symmetry adapted basis functions of A1  symmetry.
 There are     0 symmetry adapted basis functions of A2  symmetry.
 There are     2 symmetry adapted basis functions of B1  symmetry.
 There are     2 symmetry adapted basis functions of B2  symmetry.
 Integral buffers will be    262144 words long.
 Raffenetti 1 integral format.
 Two-electron integral symmetry is turned on.
    11 basis functions,    18 primitive gaussians,    11 cartesian basis functions
     5 alpha electrons        5 beta electrons
       nuclear repulsion energy         5.0998677089 Hartrees.
 NAtoms=    2 NActive=    2 NUniq=    2 SFac= 7.50D-01 NAtFMM=   80 NAOKFM=F Big=F
 One-electron integrals computed using PRISM.
 NBasis=    11 RedAO= T  NBF=     7     0     2     2
 NBsUse=    11 1.00D-06 NBFU=     7     0     2     2
 Initial guess read from the read-write file.
 B after Tr=     0.000000    0.000000    0.000000
         Rot=    1.000000    0.000000    0.000000    0.000000 Ang=   0.00 deg.
 Initial guess orbital symmetries:
       Occupied  (SG) (SG) (SG) (PI) (PI)
       Virtual   (SG) (SG) (PI) (PI) (SG) (SG)
 Harris functional with IExCor=  205 diagonalized for initial guess.
 ExpMin= 1.83D-01 ExpMax= 4.14D+02 ExpMxC= 4.14D+02 IAcc=1 IRadAn=         1 AccDes= 0.00D+00
 HarFok:  IExCor=  205 AccDes= 0.00D+00 IRadAn=         1 IDoV= 1
 ScaDFX=  1.000000  1.000000  1.000000  1.000000
 FoFCou: FMM=F IPFlag=           0 FMFlag=      100000 FMFlg1=           0
         NFxFlg=           0 DoJE=T BraDBF=F KetDBF=T FulRan=T
         Omega=  0.000000  0.000000  1.000000  0.000000  0.000000 ICntrl=     500 IOpCl=  0
         NMat0=    1 NMatS0=    1 NMatT0=    0 NMatD0=    1 NMtDS0=    0 NMtDT0=    0
         I1Cent=           4 NGrid=           0.
 Petite list used in FoFCou.
 Requested convergence on RMS density matrix=1.00D-08 within 128 cycles.
 Requested convergence on MAX density matrix=1.00D-06.
 Requested convergence on             energy=1.00D-06.
 No special actions if energy rises.
 Keep R1 ints in memory in canonical form, NReq=821943.
 SCF Done:  E(RHF) =  -99.4602051475     A.U. after    9 cycles
             Convg  =    0.7627D-09             -V/T =  2.0022
 Calling FoFJK, ICntrl=      2127 FMM=F ISym2X=1 I1Cent= 0 IOpClX= 0 NMat=1 NMatS=1 NMatT=0.
 ***** Axes restored to original set *****
 -------------------------------------------------------------------
 Center     Atomic                   Forces (Hartrees/Bohr)
 Number     Number              X              Y              Z
 -------------------------------------------------------------------
      1        9           0.004092674    0.000000000    0.000000000
      2        1          -0.004092674    0.000000000    0.000000000
 -------------------------------------------------------------------
 Cartesian Forces:  Max     0.004092674 RMS     0.002362906

 GradGradGradGradGradGradGradGradGradGradGradGradGradGradGradGradGradGrad
 Berny optimization.
 Using GEDIIS/GDIIS optimizer.
 Internal  Forces:  Max     0.004092674 RMS     0.004092674
 Search for a local minimum.
 Step number   2 out of a maximum of   20
 All quantities printed in internal units (Hartrees-Bohrs-Radians)
 Mixed Optimization -- RFO/linear search
 Update second derivatives using D2CorX and points    1    2
 DE= -4.01D-03 DEPred=-4.07D-03 R= 9.84D-01
 SS=  1.41D+00  RLast= 1.02D-01 DXNew= 5.0454D-01 3.0538D-01
 Trust test= 9.84D-01 RLast= 1.02D-01 DXMaxT set to 3.05D-01
 The second derivative matrix:
                          R1
           R1           0.73748
 Use linear search instead of GDIIS.
     Eigenvalues ---    0.73748
 RFO step:  Lambda= 0.00000000D+00 EMin= 7.37481832D-01
 Quartic linear search produced a step of  0.06698.
 Iteration  1 RMS(Cart)=  0.00482144 RMS(Int)=  0.00000000
 Iteration  2 RMS(Cart)=  0.00000000 RMS(Int)=  0.00000000
 ClnCor:  largest displacement from symmetrization is 0.00D+00 for atom     0.
 Variable       Old X    -DE/DX   Delta X   Delta X   Delta X     New X
                                 (Linear)    (Quad)   (Total)
    R1        1.76475   0.00409   0.00682   0.00000   0.00682   1.77157
         Item               Value     Threshold  Converged?
 Maximum Force            0.004093     0.000450     NO 
 RMS     Force            0.004093     0.000300     NO 
 Maximum Displacement     0.003409     0.001800     NO 
 RMS     Displacement     0.004821     0.001200     NO 
 Predicted change in Energy=-1.076237D-05
 GradGradGradGradGradGradGradGradGradGradGradGradGradGradGradGradGradGrad

                          Input orientation:                          
 ---------------------------------------------------------------------
 Center     Atomic      Atomic             Coordinates (Angstroms)
 Number     Number       Type             X           Y           Z
 ---------------------------------------------------------------------
      1          9           0       -1.752085    3.196347    0.000000
      2          1           0       -2.689559    3.196347    0.000000
 ---------------------------------------------------------------------
 Stoichiometry    FH
 Framework group  C*V[C*(HF)]
 Deg. of freedom     1
 Full point group                 C*V     NOp   4
 Largest Abelian subgroup         C2V     NOp   4
 Largest concise Abelian subgroup C1      NOp   1
                         Standard orientation:                         
 ---------------------------------------------------------------------
 Center     Atomic      Atomic             Coordinates (Angstroms)
 Number     Number       Type             X           Y           Z
 ---------------------------------------------------------------------
      1          9           0        0.000000    0.000000    0.093747
      2          1           0        0.000000    0.000000   -0.843727
 ---------------------------------------------------------------------
 Rotational constants (GHZ):      0.0000000    600.8432348    600.8432348
 Standard basis: 3-21G (6D, 7F)
 There are     7 symmetry adapted basis functions of A1  symmetry.
 There are     0 symmetry adapted basis functions of A2  symmetry.
 There are     2 symmetry adapted basis functions of B1  symmetry.
 There are     2 symmetry adapted basis functions of B2  symmetry.
 Integral buffers will be    262144 words long.
 Raffenetti 1 integral format.
 Two-electron integral symmetry is turned on.
    11 basis functions,    18 primitive gaussians,    11 cartesian basis functions
     5 alpha electrons        5 beta electrons
       nuclear repulsion energy         5.0802389813 Hartrees.
 NAtoms=    2 NActive=    2 NUniq=    2 SFac= 7.50D-01 NAtFMM=   80 NAOKFM=F Big=F
 One-electron integrals computed using PRISM.
 NBasis=    11 RedAO= T  NBF=     7     0     2     2
 NBsUse=    11 1.00D-06 NBFU=     7     0     2     2
 Initial guess read from the read-write file.
 B after Tr=     0.000000    0.000000    0.000000
         Rot=    1.000000    0.000000    0.000000    0.000000 Ang=   0.00 deg.
 Initial guess orbital symmetries:
       Occupied  (SG) (SG) (SG) (PI) (PI)
       Virtual   (SG) (SG) (PI) (PI) (SG) (SG)
 Requested convergence on RMS density matrix=1.00D-08 within 128 cycles.
 Requested convergence on MAX density matrix=1.00D-06.
 Requested convergence on             energy=1.00D-06.
 No special actions if energy rises.
 Keep R1 ints in memory in canonical form, NReq=821943.
 SCF Done:  E(RHF) =  -99.4602189421     A.U. after    7 cycles
             Convg  =    0.1181D-08             -V/T =  2.0022
 Calling FoFJK, ICntrl=      2127 FMM=F ISym2X=1 I1Cent= 0 IOpClX= 0 NMat=1 NMatS=1 NMatT=0.
 ***** Axes restored to original set *****
 -------------------------------------------------------------------
 Center     Atomic                   Forces (Hartrees/Bohr)
 Number     Number              X              Y              Z
 -------------------------------------------------------------------
      1        9          -0.000029806    0.000000000    0.000000000
      2        1           0.000029806    0.000000000    0.000000000
 -------------------------------------------------------------------
 Cartesian Forces:  Max     0.000029806 RMS     0.000017208

 GradGradGradGradGradGradGradGradGradGradGradGradGradGradGradGradGradGrad
 Berny optimization.
 Using GEDIIS/GDIIS optimizer.
 Internal  Forces:  Max     0.000029806 RMS     0.000029806
 Search for a local minimum.
 Step number   3 out of a maximum of   20
 All quantities printed in internal units (Hartrees-Bohrs-Radians)
 Mixed Optimization -- En-DIIS/RFO-DIIS
 Update second derivatives using D2CorX and points    2    3
 DE= -1.38D-05 DEPred=-1.08D-05 R= 1.28D+00
 SS=  1.41D+00  RLast= 6.82D-03 DXNew= 5.1358D-01 2.0456D-02
 Trust test= 1.28D+00 RLast= 6.82D-03 DXMaxT set to 3.05D-01
 The second derivative matrix:
                          R1
           R1           0.60460
 Use linear search instead of GDIIS.
     Eigenvalues ---    0.60460
 RFO step:  Lambda= 0.00000000D+00 EMin= 6.04598286D-01
 Quartic linear search produced a step of -0.00732.
 Iteration  1 RMS(Cart)=  0.00003528 RMS(Int)=  0.00000000
 Iteration  2 RMS(Cart)=  0.00000000 RMS(Int)=  0.00000000
 ClnCor:  largest displacement from symmetrization is 0.00D+00 for atom     0.
 Variable       Old X    -DE/DX   Delta X   Delta X   Delta X     New X
                                 (Linear)    (Quad)   (Total)
    R1        1.77157  -0.00003  -0.00005   0.00000  -0.00005   1.77152
         Item               Value     Threshold  Converged?
 Maximum Force            0.000030     0.000450     YES
 RMS     Force            0.000030     0.000300     YES
 Maximum Displacement     0.000025     0.001800     YES
 RMS     Displacement     0.000035     0.001200     YES
 Predicted change in Energy=-7.345781D-10
 Optimization completed.
    -- Stationary point found.
                           ----------------------------
                           !   Optimized Parameters   !
                           ! (Angstroms and Degrees)  !
 --------------------------                            --------------------------
 ! Name  Definition              Value          Derivative Info.                !
 --------------------------------------------------------------------------------
 ! R1    R(1,2)                  0.9375         -DE/DX =    0.0                 !
 --------------------------------------------------------------------------------
 GradGradGradGradGradGradGradGradGradGradGradGradGradGradGradGradGradGrad

                          Input orientation:                          
 ---------------------------------------------------------------------
 Center     Atomic      Atomic             Coordinates (Angstroms)
 Number     Number       Type             X           Y           Z
 ---------------------------------------------------------------------
      1          9           0       -1.752085    3.196347    0.000000
      2          1           0       -2.689559    3.196347    0.000000
 ---------------------------------------------------------------------
 Stoichiometry    FH
 Framework group  C*V[C*(HF)]
 Deg. of freedom     1
 Full point group                 C*V     NOp   4
 Largest Abelian subgroup         C2V     NOp   4
 Largest concise Abelian subgroup C1      NOp   1
                         Standard orientation:                         
 ---------------------------------------------------------------------
 Center     Atomic      Atomic             Coordinates (Angstroms)
 Number     Number       Type             X           Y           Z
 ---------------------------------------------------------------------
      1          9           0        0.000000    0.000000    0.093747
      2          1           0        0.000000    0.000000   -0.843727
 ---------------------------------------------------------------------
 Rotational constants (GHZ):      0.0000000    600.8432348    600.8432348

 **********************************************************************

            Population analysis using the SCF density.

 **********************************************************************

 Orbital symmetries:
       Occupied  (SG) (SG) (SG) (PI) (PI)
       Virtual   (SG) (SG) (PI) (PI) (SG) (SG)
 The electronic state is 1-SG.
 Alpha  occ. eigenvalues --  -26.11516  -1.54680  -0.69880  -0.59744  -0.59744
 Alpha virt. eigenvalues --    0.26228   1.20606   2.23463   2.23463   2.42717
 Alpha virt. eigenvalues --    3.67341
          Condensed to atoms (all electrons):
              1          2
     1  F    9.239446   0.210697
     2  H    0.210697   0.339160
 Mulliken atomic charges:
              1
     1  F   -0.450143
     2  H    0.450143
 Sum of Mulliken atomic charges =   0.00000
 Mulliken charges with hydrogens summed into heavy atoms:
              1
     1  F    0.000000
 Sum of Mulliken charges with hydrogens summed into heavy atoms =   0.00000
 Electronic spatial extent (au):  <R**2>=             12.9539
 Charge=              0.0000 electrons
 Dipole moment (field-independent basis, Debye):
    X=              0.0000    Y=              0.0000    Z=             -2.1736  Tot=              2.1736
 Quadrupole moment (field-independent basis, Debye-Ang):
   XX=             -5.1732   YY=             -5.1732   ZZ=             -3.2778
   XY=              0.0000   XZ=              0.0000   YZ=              0.0000
 Traceless Quadrupole moment (field-independent basis, Debye-Ang):
   XX=             -0.6318   YY=             -0.6318   ZZ=              1.2636
   XY=              0.0000   XZ=              0.0000   YZ=              0.0000
 Octapole moment (field-independent basis, Debye-Ang**2):
  XXX=              0.0000  YYY=              0.0000  ZZZ=             -1.7634  XYY=              0.0000
  XXY=              0.0000  XXZ=             -0.1403  XZZ=              0.0000  YZZ=              0.0000
  YYZ=             -0.1403  XYZ=              0.0000
 Hexadecapole moment (field-independent basis, Debye-Ang**3):
 XXXX=             -2.4380 YYYY=             -2.4380 ZZZZ=             -2.5820 XXXY=              0.0000
 XXXZ=              0.0000 YYYX=              0.0000 YYYZ=              0.0000 ZZZX=              0.0000
 ZZZY=              0.0000 XXYY=             -0.8127 XXZZ=             -1.0706 YYZZ=             -1.0706
 XXYZ=              0.0000 YYXZ=              0.0000 ZZXY=              0.0000
 N-N= 5.080238981313D+00 E-N=-2.492071230530D+02  KE= 9.923750488492D+01
 Symmetry A1   KE= 8.649539461306D+01
 Symmetry A2   KE= 0.000000000000D+00
 Symmetry B1   KE= 6.371055135931D+00
 Symmetry B2   KE= 6.371055135931D+00
 1|1|UNPC-LAPTOP-7BBBEH3F|FOpt|RHF|3-21G|F1H1|SAIF_|09-May-2025|0||# op
 t freq hf/3-21g geom=connectivity||Title Card Required||0,1|F,-1.75208
 45628,3.19634698,0.|H,-2.6895591372,3.19634698,0.||Version=IA32W-G09Re
 vA.02|State=1-SG|HF=-99.4602189|RMSD=1.181e-009|RMSF=1.721e-005|Dipole
 =-0.8551464,0.,0.|Quadrupole=0.9394914,-0.4697457,-0.4697457,0.,0.,0.|
 PG=C*V [C*(H1F1)]||@


 IF YOU GIVE EVERYONE A PIECE OF YOUR MIND,
 PRETTY SOON IT WILL BE ALL GONE.
 Job cpu time:  0 days  0 hours  0 minutes  1.0 seconds.
 File lengths (MBytes):  RWF=      5 Int=      0 D2E=      0 Chk=      1 Scr=      1
 Normal termination of Gaussian 09 at Fri May 09 09:43:58 2025.
 Link1:  Proceeding to internal job step number  2.
 --------------------------------------------------------------
 #N Geom=AllCheck Guess=TCheck SCRF=Check GenChk RHF/3-21G Freq
 --------------------------------------------------------------
 1/10=4,29=7,30=1,38=1,40=1/1,3;
 2/12=2,40=1/2;
 3/5=5,11=1,14=-4,16=1,25=1,30=1,70=2,71=2,116=1/1,2,3;
 4/5=101/1;
 5/5=2,98=1/2;
 8/6=4,10=90,11=11/1;
 10/13=10,15=4/2;
 11/6=3,8=1,9=11,15=111,16=1/1,2,10;
 10/6=1/2;
 6/7=2,8=2,9=2,10=2,18=1,28=1/1;
 7/8=1,10=1,25=1/1,2,3,16;
 1/10=4,30=1/3;
 99//99;
 -------------------
 Title Card Required
 -------------------
 Redundant internal coordinates taken from checkpoint file:
 C:\Users\saif_\Desktop\downs\GV\hfl.chk
 Charge =  0 Multiplicity = 1
 F,0,-1.7520845628,3.19634698,0.
 H,0,-2.6895591372,3.19634698,0.
 Recover connectivity data from disk.

 GradGradGradGradGradGradGradGradGradGradGradGradGradGradGradGradGradGrad
 Berny optimization.
 Initialization pass.
                           ----------------------------
                           !    Initial Parameters    !
                           ! (Angstroms and Degrees)  !
 --------------------------                            --------------------------
 ! Name  Definition              Value          Derivative Info.                !
 --------------------------------------------------------------------------------
 ! R1    R(1,2)                  0.9375         calculate D2E/DX2 analytically  !
 --------------------------------------------------------------------------------
 Trust Radius=3.00D-01 FncErr=1.00D-07 GrdErr=1.00D-07
 Number of steps in this run=   2 maximum allowed number of steps=   2.
 GradGradGradGradGradGradGradGradGradGradGradGradGradGradGradGradGradGrad

                          Input orientation:                          
 ---------------------------------------------------------------------
 Center     Atomic      Atomic             Coordinates (Angstroms)
 Number     Number       Type             X           Y           Z
 ---------------------------------------------------------------------
      1          9           0       -1.752085    3.196347    0.000000
      2          1           0       -2.689559    3.196347    0.000000
 ---------------------------------------------------------------------
 Stoichiometry    FH
 Framework group  C*V[C*(HF)]
 Deg. of freedom     1
 Full point group                 C*V     NOp   4
 Largest Abelian subgroup         C2V     NOp   4
 Largest concise Abelian subgroup C1      NOp   1
                         Standard orientation:                         
 ---------------------------------------------------------------------
 Center     Atomic      Atomic             Coordinates (Angstroms)
 Number     Number       Type             X           Y           Z
 ---------------------------------------------------------------------
      1          9           0        0.000000    0.000000    0.093747
      2          1           0        0.000000    0.000000   -0.843727
 ---------------------------------------------------------------------
 Rotational constants (GHZ):      0.0000000    600.8432348    600.8432348
 Standard basis: 3-21G (6D, 7F)
 There are     7 symmetry adapted basis functions of A1  symmetry.
 There are     0 symmetry adapted basis functions of A2  symmetry.
 There are     2 symmetry adapted basis functions of B1  symmetry.
 There are     2 symmetry adapted basis functions of B2  symmetry.
 Integral buffers will be    262144 words long.
 Raffenetti 1 integral format.
 Two-electron integral symmetry is turned on.
    11 basis functions,    18 primitive gaussians,    11 cartesian basis functions
     5 alpha electrons        5 beta electrons
       nuclear repulsion energy         5.0802389813 Hartrees.
 NAtoms=    2 NActive=    2 NUniq=    2 SFac= 7.50D-01 NAtFMM=   80 NAOKFM=F Big=F
 One-electron integrals computed using PRISM.
 NBasis=    11 RedAO= T  NBF=     7     0     2     2
 NBsUse=    11 1.00D-06 NBFU=     7     0     2     2
 Initial guess read from the checkpoint file:  C:\Users\saif_\Desktop\downs\GV\hf
 l.chk
 B after Tr=     0.000000    0.000000    0.000000
         Rot=    1.000000    0.000000    0.000000    0.000000 Ang=   0.00 deg.
 Initial guess orbital symmetries:
       Occupied  (SG) (SG) (SG) (PI) (PI)
       Virtual   (SG) (SG) (PI) (PI) (SG) (SG)
 Requested convergence on RMS density matrix=1.00D-08 within 128 cycles.
 Requested convergence on MAX density matrix=1.00D-06.
 Requested convergence on             energy=1.00D-06.
 No special actions if energy rises.
 Keep R1 ints in memory in canonical form, NReq=821943.
 SCF Done:  E(RHF) =  -99.4602189421     A.U. after    1 cycles
             Convg  =    0.5073D-10             -V/T =  2.0022
 Range of M.O.s used for correlation:     1    11
 NBasis=    11 NAE=     5 NBE=     5 NFC=     0 NFV=     0
 NROrb=     11 NOA=     5 NOB=     5 NVA=     6 NVB=     6
          Differentiating once with respect to electric field.
                with respect to dipole field.
          Electric field/nuclear overlap derivatives assumed to be zero.
          Keep R1 ints in memory in canonical form, NReq=802445.
          There are     3 degrees of freedom in the 1st order CPHF.  IDoFFX=0.
      3 vectors produced by pass  0 Test12= 1.00D-15 3.33D-08 XBig12= 6.93D-01 7.85D-01.
 AX will form     3 AO Fock derivatives at one time.
      3 vectors produced by pass  1 Test12= 1.00D-15 3.33D-08 XBig12= 1.79D-02 7.79D-02.
      3 vectors produced by pass  2 Test12= 1.00D-15 3.33D-08 XBig12= 1.34D-03 2.84D-02.
      3 vectors produced by pass  3 Test12= 1.00D-15 3.33D-08 XBig12= 3.40D-06 9.67D-04.
      3 vectors produced by pass  4 Test12= 1.00D-15 3.33D-08 XBig12= 2.20D-09 2.70D-05.
      3 vectors produced by pass  5 Test12= 1.00D-15 3.33D-08 XBig12= 5.28D-12 1.36D-06.
      1 vectors produced by pass  6 Test12= 1.00D-15 3.33D-08 XBig12= 1.21D-14 6.00D-08.
 Inverted reduced A of dimension    19 with in-core refinement.
 End of Minotr Frequency-dependent properties file   721 does not exist.
 End of Minotr Frequency-dependent properties file   722 does not exist.
 Symmetrizing basis deriv contribution to polar:
 IMax=3 JMax=2 DiffMx= 0.00D+00
 G2DrvN: will do     3 centers at a time, making    1 passes doing MaxLOS=1.
 Calling FoFCou, ICntrl=  3107 FMM=F I1Cent=   0 AccDes= 0.00D+00.
 FoFDir/FoFCou used for L=0 through L=1.
 End of G2Drv Frequency-dependent properties file   721 does not exist.
 End of G2Drv Frequency-dependent properties file   722 does not exist.
          IDoAtm=11
          Differentiating once with respect to electric field.
                with respect to dipole field.
          Differentiating once with respect to nuclear coordinates.
          Keep R1 ints in memory in canonical form, NReq=802469.
          There are     9 degrees of freedom in the 1st order CPHF.  IDoFFX=5.
 Will reuse    3 saved solutions.
      3 vectors produced by pass  0 Test12= 3.33D-16 1.11D-08 XBig12= 2.53D-02 1.15D-01.
 AX will form     3 AO Fock derivatives at one time.
      3 vectors produced by pass  1 Test12= 3.33D-16 1.11D-08 XBig12= 1.06D-03 1.92D-02.
      3 vectors produced by pass  2 Test12= 3.33D-16 1.11D-08 XBig12= 1.50D-04 7.91D-03.
      3 vectors produced by pass  3 Test12= 3.33D-16 1.11D-08 XBig12= 1.42D-07 2.72D-04.
      3 vectors produced by pass  4 Test12= 3.33D-16 1.11D-08 XBig12= 5.82D-10 1.31D-05.
      3 vectors produced by pass  5 Test12= 3.33D-16 1.11D-08 XBig12= 2.08D-12 9.26D-07.
      1 vectors produced by pass  6 Test12= 3.33D-16 1.11D-08 XBig12= 8.54D-15 7.26D-08.
 Inverted reduced A of dimension    19 with in-core refinement.
 Isotropic polarizability for W=    0.000000        1.57 Bohr**3.
 End of Minotr Frequency-dependent properties file   721 does not exist.
 End of Minotr Frequency-dependent properties file   722 does not exist.

 **********************************************************************

            Population analysis using the SCF density.

 **********************************************************************

 Orbital symmetries:
       Occupied  (SG) (SG) (SG) (PI) (PI)
       Virtual   (SG) (SG) (PI) (PI) (SG) (SG)
 The electronic state is 1-SG.
 Alpha  occ. eigenvalues --  -26.11516  -1.54680  -0.69880  -0.59744  -0.59744
 Alpha virt. eigenvalues --    0.26228   1.20606   2.23463   2.23463   2.42717
 Alpha virt. eigenvalues --    3.67341
          Condensed to atoms (all electrons):
              1          2
     1  F    9.239446   0.210697
     2  H    0.210697   0.339160
 Mulliken atomic charges:
              1
     1  F   -0.450143
     2  H    0.450143
 Sum of Mulliken atomic charges =   0.00000
 Mulliken charges with hydrogens summed into heavy atoms:
              1
     1  F    0.000000
 Sum of Mulliken charges with hydrogens summed into heavy atoms =   0.00000
 APT atomic charges:
              1
     1  F   -0.381745
     2  H    0.381745
 Sum of APT charges=   0.00000
 APT Atomic charges with hydrogens summed into heavy atoms:
              1
     1  F    0.000000
     2  H    0.000000
 Sum of APT charges=   0.00000
 Electronic spatial extent (au):  <R**2>=             12.9539
 Charge=              0.0000 electrons
 Dipole moment (field-independent basis, Debye):
    X=              0.0000    Y=              0.0000    Z=             -2.1736  Tot=              2.1736
 Quadrupole moment (field-independent basis, Debye-Ang):
   XX=             -5.1732   YY=             -5.1732   ZZ=             -3.2778
   XY=              0.0000   XZ=              0.0000   YZ=              0.0000
 Traceless Quadrupole moment (field-independent basis, Debye-Ang):
   XX=             -0.6318   YY=             -0.6318   ZZ=              1.2636
   XY=              0.0000   XZ=              0.0000   YZ=              0.0000
 Octapole moment (field-independent basis, Debye-Ang**2):
  XXX=              0.0000  YYY=              0.0000  ZZZ=             -1.7634  XYY=              0.0000
  XXY=              0.0000  XXZ=             -0.1403  XZZ=              0.0000  YZZ=              0.0000
  YYZ=             -0.1403  XYZ=              0.0000
 Hexadecapole moment (field-independent basis, Debye-Ang**3):
 XXXX=             -2.4380 YYYY=             -2.4380 ZZZZ=             -2.5820 XXXY=              0.0000
 XXXZ=              0.0000 YYYX=              0.0000 YYYZ=              0.0000 ZZZX=              0.0000
 ZZZY=              0.0000 XXYY=             -0.8127 XXZZ=             -1.0706 YYZZ=             -1.0706
 XXYZ=              0.0000 YYXZ=              0.0000 ZZXY=              0.0000
 N-N= 5.080238981313D+00 E-N=-2.492071230529D+02  KE= 9.923750488504D+01
 Symmetry A1   KE= 8.649539461053D+01
 Symmetry A2   KE= 0.000000000000D+00
 Symmetry B1   KE= 6.371055137255D+00
 Symmetry B2   KE= 6.371055137255D+00
  Exact polarizability:   0.378   0.000   0.378   0.000   0.000   3.960
 Approx polarizability:   0.280   0.000   0.280   0.000   0.000   3.009
 Calling FoFJK, ICntrl=    100127 FMM=F ISym2X=1 I1Cent= 0 IOpClX= 0 NMat=1 NMatS=1 NMatT=0.
 Full mass-weighted force constant matrix:
 Low frequencies ---    0.0003    0.0003    0.0024   21.5529   21.5529 4060.9408
 Diagonal vibrational polarizability:
        0.0000000       0.0000000       0.0537521
 Diagonal vibrational hyperpolarizability:
        0.0000000       0.0000000      -1.9734888
 Harmonic frequencies (cm**-1), IR intensities (KM/Mole), Raman scattering
 activities (A**4/AMU), depolarization ratios for plane and unpolarized
 incident light, reduced masses (AMU), force constants (mDyne/A),
 and normal coordinates:
                     1
                    SG
 Frequencies --  4060.9408
 Red. masses --     1.0583
 Frc consts  --    10.2829
 IR Inten    --    32.9394
 Raman Activ --    42.1170
 Depolar (P) --     0.3824
 Depolar (U) --     0.5533
  Atom  AN      X      Y      Z
     1   9     0.00   0.00   0.05
     2   1     0.00   0.00  -1.00

 -------------------
 - Thermochemistry -
 -------------------
 Temperature   298.150 Kelvin.  Pressure   1.00000 Atm.
 Atom     1 has atomic number  9 and mass  18.99840
 Atom     2 has atomic number  1 and mass   1.00783
 Molecular mass:    20.00623 amu.
 Principal axes and moments of inertia in atomic units:
                           1         2         3
     Eigenvalues --     0.00000   3.00368   3.00368
           X            0.00000   0.00000   1.00000
           Y            0.00000   1.00000   0.00000
           Z            1.00000   0.00000   0.00000
 This molecule is a prolate symmetric top.
 Rotational symmetry number  1.
 Rotational temperature (Kelvin)     28.83589
 Rotational constant (GHZ):         600.843235
 Zero-point vibrational energy      24289.8 (Joules/Mol)
                                    5.80541 (Kcal/Mol)
 Vibrational temperatures:   5842.78
          (Kelvin)
 
 Zero-point correction=                           0.009252 (Hartree/Particle)
 Thermal correction to Energy=                    0.011612
 Thermal correction to Enthalpy=                  0.012556
 Thermal correction to Gibbs Free Energy=        -0.007186
 Sum of electronic and zero-point Energies=            -99.450967
 Sum of electronic and thermal Energies=               -99.448607
 Sum of electronic and thermal Enthalpies=             -99.447663
 Sum of electronic and thermal Free Energies=          -99.467405
 
                     E (Thermal)             CV                S
                      KCal/Mol        Cal/Mol-Kelvin    Cal/Mol-Kelvin
 Total                    7.287              4.968             41.551
 Electronic               0.000              0.000              0.000
 Translational            0.889              2.981             34.922
 Rotational               0.592              1.987              6.629
 Vibrational              5.805              0.000              0.000
                       Q            Log10(Q)             Ln(Q)
 Total Bot       0.201984D+04          3.305317          7.610774
 Total V=0       0.363667D+08          7.560704         17.409165
 Vib (Bot)       0.555409D-04         -4.255387         -9.798391
 Vib (V=0)       0.100000D+01          0.000000          0.000000
 Electronic      0.100000D+01          0.000000          0.000000
 Translational   0.351725D+07          6.546203         15.073190
 Rotational      0.103395D+02          1.014501          2.335976
 ***** Axes restored to original set *****
 -------------------------------------------------------------------
 Center     Atomic                   Forces (Hartrees/Bohr)
 Number     Number              X              Y              Z
 -------------------------------------------------------------------
      1        9          -0.000029806    0.000000000    0.000000000
      2        1           0.000029806    0.000000000    0.000000000
 -------------------------------------------------------------------
 Cartesian Forces:  Max     0.000029806 RMS     0.000017208

 GradGradGradGradGradGradGradGradGradGradGradGradGradGradGradGradGradGrad
 Berny optimization.
 Internal  Forces:  Max     0.000029806 RMS     0.000029806
 Search for a local minimum.
 Step number   1 out of a maximum of    2
 All quantities printed in internal units (Hartrees-Bohrs-Radians)
 Second derivative matrix not updated -- analytic derivatives used.
 The second derivative matrix:
                          R1
           R1           0.59729
     Eigenvalues ---    0.59729
 Angle between quadratic step and forces=   0.00 degrees.
 Linear search not attempted -- first point.
 Iteration  1 RMS(Cart)=  0.00003529 RMS(Int)=  0.00000000
 Iteration  2 RMS(Cart)=  0.00000000 RMS(Int)=  0.00000000
 ClnCor:  largest displacement from symmetrization is 0.00D+00 for atom     0.
 Variable       Old X    -DE/DX   Delta X   Delta X   Delta X     New X
                                 (Linear)    (Quad)   (Total)
    R1        1.77157  -0.00003   0.00000  -0.00005  -0.00005   1.77152
         Item               Value     Threshold  Converged?
 Maximum Force            0.000030     0.000450     YES
 RMS     Force            0.000030     0.000300     YES
 Maximum Displacement     0.000025     0.001800     YES
 RMS     Displacement     0.000035     0.001200     YES
 Predicted change in Energy=-7.436830D-10
 Optimization completed.
    -- Stationary point found.
                           ----------------------------
                           !   Optimized Parameters   !
                           ! (Angstroms and Degrees)  !
 --------------------------                            --------------------------
 ! Name  Definition              Value          Derivative Info.                !
 --------------------------------------------------------------------------------
 ! R1    R(1,2)                  0.9375         -DE/DX =    0.0                 !
 --------------------------------------------------------------------------------
 GradGradGradGradGradGradGradGradGradGradGradGradGradGradGradGradGradGrad

 1|1|UNPC-LAPTOP-7BBBEH3F|Freq|RHF|3-21G|F1H1|SAIF_|09-May-2025|0||#N G
 eom=AllCheck Guess=TCheck SCRF=Check GenChk RHF/3-21G Freq||Title Card
  Required||0,1|F,-1.7520845628,3.19634698,0.|H,-2.6895591372,3.1963469
 8,0.||Version=IA32W-G09RevA.02|State=1-SG|HF=-99.4602189|RMSD=5.073e-0
 11|RMSF=1.721e-005|ZeroPoint=0.0092515|Thermal=0.011612|Dipole=-0.8551
 464,0.,0.|DipoleDeriv=-0.1798253,0.,0.,0.,-0.4827053,0.,0.,0.,-0.48270
 53,0.1798253,0.,0.,0.,0.4827053,0.,0.,0.,0.4827053|Polar=3.959798,0.,0
 .3781921,0.,0.,0.3781921|PolarDeriv=6.6022176,0.,-0.2826653,0.,0.,-0.2
 826653,0.,2.0217127,0.,0.,0.,0.,0.,0.,0.,2.0217127,0.,0.,-6.6022176,0.
 ,0.2826653,0.,0.,0.2826653,0.,-2.0217127,0.,0.,0.,0.,0.,0.,0.,-2.02171
 27,0.,0.|HyperPolar=-17.8617854,0.,-0.4772074,0.,0.,0.,0.,-0.4772074,0
 .,0.|PG=C*V [C*(H1F1)]|NImag=0||0.59728525,0.,0.00001682,0.,0.,0.00001
 682,-0.59728525,0.,0.,0.59728525,0.,-0.00001682,0.,0.,0.00001682,0.,0.
 ,-0.00001682,0.,0.,0.00001682||0.00002981,0.,0.,-0.00002981,0.,0.|||@


 IF YOU GIVE EVERYONE A PIECE OF YOUR MIND,
 PRETTY SOON IT WILL BE ALL GONE.
 Job cpu time:  0 days  0 hours  0 minutes  1.0 seconds.
 File lengths (MBytes):  RWF=      5 Int=      0 D2E=      0 Chk=      1 Scr=      1
 Normal termination of Gaussian 09 at Fri May 09 09:43:59 2025.
