%chk=JK1-3_E-on_0.chk
# ub3lyp/6-31++g(d,p) scrf=(cpcm,solvent=dichloromethane) geom=connectivity

JK1-3_E-on_0

-1 2
 C                  3.11416200   -2.56306200   -0.13436500
 C                  3.44534200   -1.18958200   -0.16563300
 C                  2.40618500   -0.23939300   -0.14563500
 C                  1.07533400   -0.65809500   -0.10940900
 C                  0.76472000   -2.03825700   -0.07849400
 C                  1.78655300   -2.99224800   -0.08879700
 H                  3.90862900   -3.30387300   -0.16859700
 H                  2.65474900    0.81886000   -0.13535200
 H                  1.56095100   -4.05606800   -0.07152100
 C                 -1.27379400   -0.87899700   -0.03693700
 C                 -2.66318100   -0.75296100   -0.09965800
 C                 -3.48323500   -1.89930100   -0.12593500
 C                 -2.88248300   -3.17628800   -0.09340400
 C                 -1.49531200   -3.31927500   -0.06597300
 C                 -0.69086300   -2.17670900   -0.04723200
 H                 -3.12571700    0.22687300   -0.10955800
 H                 -3.50583100   -4.06556700   -0.12974900
 H                 -1.05231800   -4.31220100   -0.07845300
 C                  4.86599500   -0.75179700   -0.21773800
 C                  5.24574300    0.36348300   -0.97613900
 C                  5.85820900   -1.45522800    0.49157800
 C                  6.58053100    0.77884700   -1.01958200
 H                  4.52190000    0.91217800   -1.57142200
 C                  7.19727900   -1.05527600    0.44089100
 H                  5.57482900   -2.31213100    1.09145700
 C                  7.57353800    0.08787200   -0.30476500
 C                 -4.95835600   -1.76245600   -0.18527600
 C                 -5.56187300   -0.71117800   -0.90812600
 C                 -5.79939800   -2.68031700    0.47961000
 C                 -6.94450200   -0.57483500   -0.96769800
 H                 -4.94287000   -0.00368900   -1.45151500
 C                 -7.18396600   -2.56042900    0.42951100
 H                 -5.36507600   -3.48558400    1.06439100
 C                 -7.74412600   -1.50451300   -0.29591100
 H                 -7.40258000    0.22905500   -1.53256200
 H                 -7.82466800   -3.26288200    0.95030000
 C                 -0.18253900    0.12987600   -0.05296400
 C                 -0.19678900    1.49079600   -0.07136600
 H                  0.76852100    1.96405000   -0.25885100
 C                 -1.28652300    2.45242800    0.12398400
 C                 -1.27186800    3.66388500   -0.60560800
 C                 -2.30616000    2.28503600    1.07746600
 C                 -2.25711100    4.62684200   -0.43382300
 H                 -0.47728300    3.84133700   -1.32737800
 C                 -3.29519500    3.25187800    1.27542000
 H                 -2.31366300    1.39880700    1.70547300
 C                 -3.28343000    4.42619300    0.50696900
 N                 -9.19921700   -1.36935700   -0.35318000
 O                 -9.67499000   -0.43224300   -0.99574900
 O                 -9.88768600   -2.19803700    0.24407700
 O                 -4.20189000    5.42645300    0.61008800
 C                 -5.26590500    5.28446900    1.55631400
 H                 -4.87791000    5.21401200    2.58011500
 H                 -5.87128300    6.18699000    1.45704800
 H                 -5.88029500    4.40383300    1.33138000
 H                 -4.05396400    3.08416800    2.03194800
 H                 -2.24612500    5.54732200   -1.01133800
 O                  6.90668900    1.82491300   -1.85573400
 O                  8.88438900    0.47330500   -0.43751600
 O                  8.21555700   -1.71504100    1.06560500
 C                  7.24687100    3.06241500   -1.21048600
 H                  8.16921100    2.96812500   -0.62776700
 H                  7.39638000    3.79113000   -2.01093300
 H                  6.42731000    3.39521900   -0.56013600
 C                  9.55966800    0.90871900    0.75934100
 H                  9.69058700    0.08187800    1.46266000
 H                 10.53398800    1.27943800    0.43218600
 H                  9.00112900    1.72147900    1.24129100
 C                  7.91035900   -2.89378600    1.81528400
 H                  7.23597800   -2.66942300    2.65113600
 H                  7.46386900   -3.66530000    1.17573700
 H                  8.86624100   -3.24986900    2.20362200

 1 2 1.5 6 1.5 7 1.0
 2 3 1.5 19 1.0
 3 4 1.5 8 1.0
 4 5 1.5 37 1.0
 5 6 1.5 15 1.0
 6 9 1.0
 7
 8
 9
 10 11 1.5 15 1.5 37 1.0
 11 12 1.5 16 1.0
 12 13 1.5 27 1.0
 13 14 1.5 17 1.0
 14 15 1.5 18 1.0
 15
 16
 17
 18
 19 20 1.5 21 1.5
 20 22 1.5 23 1.0
 21 24 1.5 25 1.0
 22 26 1.5 58 1.0
 23
 24 26 1.5 60 1.0
 25
 26 59 1.0
 27 28 1.5 29 1.5
 28 30 1.5 31 1.0
 29 32 1.5 33 1.0
 30 34 1.5 35 1.0
 31
 32 34 1.5 36 1.0
 33
 34 48 1.0
 35
 36
 37 38 2.0
 38 39 1.0 40 1.0
 39
 40 41 1.5 42 1.5
 41 43 1.5 44 1.0
 42 45 1.5 46 1.0
 43 47 1.5 57 1.0
 44
 45 47 1.5 56 1.0
 46
 47 51 1.0
 48 49 1.5 50 1.5
 49
 50
 51 52 1.0
 52 53 1.0 54 1.0 55 1.0
 53
 54
 55
 56
 57
 58 61 1.0
 59 65 1.0
 60 69 1.0
 61 62 1.0 63 1.0 64 1.0
 62
 63
 64
 65 66 1.0 67 1.0 68 1.0
 66
 67
 68
 69 70 1.0 71 1.0 72 1.0
 70
 71
 72

