%chk=C:\Users\saif_\Desktop\downs\GV\ozz.chk
# opt freq hf/3-21g geom=connectivity

Title Card Required

0 1
 O                 -0.50127630   -0.04891185   -0.83203742
 C                 -0.97862011    1.29906548   -0.83203742
 H                 -0.62364465    1.80313792   -1.70656781
 H                 -2.04861853    1.29852820   -0.83027659
 H                 -0.62077032    1.80415631    0.04073219
 N                  0.85872143   -0.04891265   -0.83452328
 H                  1.19354661   -0.51978417   -0.01832961
 H                  1.19056177   -0.52085026   -1.65132000

 1 2 1.0 6 1.0
 2 3 1.0 4 1.0 5 1.0
 3
 4
 5
 6 7 1.0 8 1.0
 7
 8

