%chk=C:\Users\saif_\Desktop\downs\GV\PURGELON2.chk
#p B3LYP/6-31G(d) scf=tight density=current output=wfn

Title Card Required

0 1
 C                  1.43448100    1.09181100    0.28115900
 C                  1.47112500   -1.39277100    0.12955200
 C                  0.07551500   -1.39613900   -0.52122200
 C                 -0.00801400    1.13536700   -0.19595500
 H                  2.02418100   -2.26564800   -0.20243100
 H                  1.40511500    1.03784900    1.36851400
 H                  1.89830500    2.02878800    0.00253300
 H                  0.20327300   -1.43369600   -1.60145100
 H                 -0.44972800   -2.29372900   -0.23005900
 H                  1.37376300   -1.45218200    1.20974600
 O                 -0.50731400    2.19904900   -0.51764800
 C                 -0.75087400   -0.16103700   -0.16966200
 C                 -2.05417100   -0.23121400    0.09105100
 C                 -2.94741900    0.94602500    0.43245300
 H                 -3.43807100    0.75951300    1.38391000
 H                 -2.41491000    1.87740400    0.46384900
 H                 -3.72486300    1.02864400   -0.32257300
 C                 -2.79823200   -1.56406000    0.10099400
 H                 -2.67203700   -2.09343600   -0.83601800
 H                 -2.44271300   -2.20370100    0.90245500
 H                 -3.85718800   -1.40090400    0.25225900
 C                  2.23236200   -0.11361900   -0.23809400
 H                  2.30137100   -0.05062700   -1.32048700
 C                  3.65181100   -0.11272000    0.35134000
 H                  4.22334600   -0.95564300   -0.02237700
 H                  4.17993700    0.79795900    0.08982900
 H                  3.60921700   -0.18283100    1.43378500

 1 4 1.0 6 1.0 7 1.0 22 1.0
 2 3 1.0 5 1.0 10 1.0 22 1.0
 3 8 1.0 9 1.0 12 1.0
 4 11 2.0 12 1.0
 5
 6
 7
 8
 9
 10
 11
 12 13 2.0
 13 14 1.0 18 1.0
 14 15 1.0 16 1.0 17 1.0
 15
 16
 17
 18 19 1.0 20 1.0 21 1.0
 19
 20
 21
 22 23 1.0 24 1.0
 23
 24 25 1.0 26 1.0 27 1.0
 25
 26
 27

