%chk=C:\Users\saif_\Desktop\downs\GV\seven.chk
# opt freq hf/6-311++g(d,p) geom=connectivity

Title Card Required

0 2
 C                 -2.91902067   -0.27306968    0.00000000
 C                 -1.57256767   -0.27306968    0.00000000
 C                 -0.72220267    0.89227532    0.00000000
 C                 -3.76942667    0.89221532    0.00034600
 C                 -1.01420767    2.08081932    0.55001600
 C                 -3.47742067    2.08074732    0.55043500
 C                 -2.24567767    2.37127232    1.32474700
 H                 -3.45506667   -1.23823468   -0.05144300
 H                 -1.03647367   -1.23821568   -0.05133200
 H                  0.24894633    0.75507632   -0.50961800
 H                 -4.74068867    0.75501032   -0.50906600
 H                 -0.30298167    2.91836732    0.46065900
 H                 -4.18880067    2.91821232    0.46148200
 H                 -2.24562867    3.44752232    1.64658900

 1 2 2.0 4 1.5 8 1.0
 2 3 1.5 9 1.0
 3 5 2.0 10 1.0
 4 6 2.0 11 1.0
 5 7 1.0 12 1.0
 6 7 1.0 13 1.0
 7 14 1.0
 8
 9
 10
 11
 12
 13
 14

