 Entering Link 1 = C:\G09W\l1.exe PID=     26428.
  
 Copyright (c) 1988,1990,1992,1993,1995,1998,2003,2009, Gaussian, Inc.
                  All Rights Reserved.
  
 This is part of the Gaussian(R) 09 program.  It is based on
 the Gaussian(R) 03 system (copyright 2003, Gaussian, Inc.),
 the Gaussian(R) 98 system (copyright 1998, Gaussian, Inc.),
 the Gaussian(R) 94 system (copyright 1995, Gaussian, Inc.),
 the Gaussian 92(TM) system (copyright 1992, Gaussian, Inc.),
 the Gaussian 90(TM) system (copyright 1990, Gaussian, Inc.),
 the Gaussian 88(TM) system (copyright 1988, Gaussian, Inc.),
 the Gaussian 86(TM) system (copyright 1986, Carnegie Mellon
 University), and the Gaussian 82(TM) system (copyright 1983,
 Carnegie Mellon University). Gaussian is a federally registered
 trademark of Gaussian, Inc.
  
 This software contains proprietary and confidential information,
 including trade secrets, belonging to Gaussian, Inc.
  
 This software is provided under written license and may be
 used, copied, transmitted, or stored only in accord with that
 written license.
  
 The following legend is applicable only to US Government
 contracts under FAR:
  
                    RESTRICTED RIGHTS LEGEND
  
 Use, reproduction and disclosure by the US Government is
 subject to restrictions as set forth in subparagraphs (a)
 and (c) of the Commercial Computer Software - Restricted
 Rights clause in FAR 52.227-19.
  
 Gaussian, Inc.
 340 Quinnipiac St., Bldg. 40, Wallingford CT 06492
  
  
 ---------------------------------------------------------------
 Warning -- This program may not be used in any manner that
 competes with the business of Gaussian, Inc. or will provide
 assistance to any competitor of Gaussian, Inc.  The licensee
 of this program is prohibited from giving any competitor of
 Gaussian, Inc. access to this program.  By using this program,
 the user acknowledges that Gaussian, Inc. is engaged in the
 business of creating and licensing software in the field of
 computational chemistry and represents and warrants to the
 licensee that it is not a competitor of Gaussian, Inc. and that
 it will not use this program in any manner prohibited above.
 ---------------------------------------------------------------
  

 Cite this work as:
 Gaussian 09, Revision A.02,
 M. J. Frisch, G. W. Trucks, H. B. Schlegel, G. E. Scuseria, 
 M. A. Robb, J. R. Cheeseman, G. Scalmani, V. Barone, B. Mennucci, 
 G. A. Petersson, H. Nakatsuji, M. Caricato, X. Li, H. P. Hratchian, 
 A. F. Izmaylov, J. Bloino, G. Zheng, J. L. Sonnenberg, M. Hada, 
 M. Ehara, K. Toyota, R. Fukuda, J. Hasegawa, M. Ishida, T. Nakajima, 
 Y. Honda, O. Kitao, H. Nakai, T. Vreven, J. A. Montgomery, Jr., 
 J. E. Peralta, F. Ogliaro, M. Bearpark, J. J. Heyd, E. Brothers, 
 K. N. Kudin, V. N. Staroverov, R. Kobayashi, J. Normand, 
 K. Raghavachari, A. Rendell, J. C. Burant, S. S. Iyengar, J. Tomasi, 
 M. Cossi, N. Rega, J. M. Millam, M. Klene, J. E. Knox, J. B. Cross, 
 V. Bakken, C. Adamo, J. Jaramillo, R. Gomperts, R. E. Stratmann, 
 O. Yazyev, A. J. Austin, R. Cammi, C. Pomelli, J. W. Ochterski, 
 R. L. Martin, K. Morokuma, V. G. Zakrzewski, G. A. Voth, 
 P. Salvador, J. J. Dannenberg, S. Dapprich, A. D. Daniels, 
 O. Farkas, J. B. Foresman, J. V. Ortiz, J. Cioslowski, 
 and D. J. Fox, Gaussian, Inc., Wallingford CT, 2009.
 
 ******************************************
 Gaussian 09:  IA32W-G09RevA.02 11-Jun-2009
                02-Aug-2025 
 ******************************************
 %chk=C:\Users\saif_\Desktop\downs\GV\seven.chk
 ---------------------------------------------
 # opt freq hf/6-311++g(d,p) geom=connectivity
 ---------------------------------------------
 1/18=20,19=15,38=1,57=2/1,3;
 2/9=110,12=2,17=6,18=5,40=1/2;
 3/5=4,6=6,7=1111,11=9,16=1,25=1,30=1,71=1/1,2,3;
 4//1;
 5/5=2,38=5/2;
 6/7=2,8=2,9=2,10=2,28=1/1;
 7//1,2,3,16;
 1/18=20,19=15/3(2);
 2/9=110/2;
 99//99;
 2/9=110/2;
 3/5=4,6=6,7=1111,11=9,16=1,25=1,30=1,71=1/1,2,3;
 4/5=5,16=3/1;
 5/5=2,38=5/2;
 7//1,2,3,16;
 1/18=20,19=15/3(-5);
 2/9=110/2;
 6/7=2,8=2,9=2,10=2,19=2,28=1/1;
 99/9=1/99;
 -------------------
 Title Card Required
 -------------------
 Symbolic Z-matrix:
 Charge =  0 Multiplicity = 2
 C                    -2.91902  -0.27307   0. 
 C                    -1.57257  -0.27307   0. 
 C                    -0.7222    0.89228   0. 
 C                    -3.76943   0.89222   0.00035 
 C                    -1.01421   2.08082   0.55002 
 C                    -3.47742   2.08075   0.55044 
 C                    -2.24568   2.37127   1.32475 
 H                    -3.45507  -1.23823  -0.05144 
 H                    -1.03647  -1.23822  -0.05133 
 H                     0.24895   0.75508  -0.50962 
 H                    -4.74069   0.75501  -0.50907 
 H                    -0.30298   2.91837   0.46066 
 H                    -4.1888    2.91821   0.46148 
 H                    -2.24563   3.44752   1.64659 
 

 GradGradGradGradGradGradGradGradGradGradGradGradGradGradGradGradGradGrad
 Berny optimization.
 Initialization pass.
                           ----------------------------
                           !    Initial Parameters    !
                           ! (Angstroms and Degrees)  !
 --------------------------                            --------------------------
 ! Name  Definition              Value          Derivative Info.                !
 --------------------------------------------------------------------------------
 ! R1    R(1,2)                  1.3465         estimate D2E/DX2                !
 ! R2    R(1,4)                  1.4426         estimate D2E/DX2                !
 ! R3    R(1,8)                  1.1052         estimate D2E/DX2                !
 ! R4    R(2,3)                  1.4426         estimate D2E/DX2                !
 ! R5    R(2,9)                  1.1052         estimate D2E/DX2                !
 ! R6    R(3,5)                  1.3418         estimate D2E/DX2                !
 ! R7    R(3,10)                 1.1053         estimate D2E/DX2                !
 ! R8    R(4,6)                  1.3418         estimate D2E/DX2                !
 ! R9    R(4,11)                 1.1053         estimate D2E/DX2                !
 ! R10   R(5,7)                  1.4836         estimate D2E/DX2                !
 ! R11   R(5,12)                 1.1024         estimate D2E/DX2                !
 ! R12   R(6,7)                  1.4836         estimate D2E/DX2                !
 ! R13   R(6,13)                 1.1024         estimate D2E/DX2                !
 ! R14   R(7,14)                 1.1233         estimate D2E/DX2                !
 ! A1    A(2,1,4)              126.1214         estimate D2E/DX2                !
 ! A2    A(2,1,8)              119.013          estimate D2E/DX2                !
 ! A3    A(4,1,8)              114.8031         estimate D2E/DX2                !
 ! A4    A(1,2,3)              126.1186         estimate D2E/DX2                !
 ! A5    A(1,2,9)              119.0158         estimate D2E/DX2                !
 ! A6    A(3,2,9)              114.8026         estimate D2E/DX2                !
 ! A7    A(2,3,5)              125.9625         estimate D2E/DX2                !
 ! A8    A(2,3,10)             114.6863         estimate D2E/DX2                !
 ! A9    A(5,3,10)             119.3512         estimate D2E/DX2                !
 ! A10   A(1,4,6)              125.966          estimate D2E/DX2                !
 ! A11   A(1,4,11)             114.6851         estimate D2E/DX2                !
 ! A12   A(6,4,11)             119.3489         estimate D2E/DX2                !
 ! A13   A(3,5,7)              124.6182         estimate D2E/DX2                !
 ! A14   A(3,5,12)             119.9564         estimate D2E/DX2                !
 ! A15   A(7,5,12)             115.4104         estimate D2E/DX2                !
 ! A16   A(4,6,7)              124.6166         estimate D2E/DX2                !
 ! A17   A(4,6,13)             119.9586         estimate D2E/DX2                !
 ! A18   A(7,6,13)             115.4098         estimate D2E/DX2                !
 ! A19   A(5,7,6)              112.2257         estimate D2E/DX2                !
 ! A20   A(5,7,14)             109.7029         estimate D2E/DX2                !
 ! A21   A(6,7,14)             109.7049         estimate D2E/DX2                !
 ! D1    D(4,1,2,3)             -0.017          estimate D2E/DX2                !
 ! D2    D(4,1,2,9)           -176.9726         estimate D2E/DX2                !
 ! D3    D(8,1,2,3)            176.949          estimate D2E/DX2                !
 ! D4    D(8,1,2,9)             -0.0065         estimate D2E/DX2                !
 ! D5    D(2,1,4,6)            -30.4106         estimate D2E/DX2                !
 ! D6    D(2,1,4,11)           149.5228         estimate D2E/DX2                !
 ! D7    D(8,1,4,6)            152.5122         estimate D2E/DX2                !
 ! D8    D(8,1,4,11)           -27.5545         estimate D2E/DX2                !
 ! D9    D(1,2,3,5)             30.4267         estimate D2E/DX2                !
 ! D10   D(1,2,3,10)          -149.506          estimate D2E/DX2                !
 ! D11   D(9,2,3,5)           -152.5061         estimate D2E/DX2                !
 ! D12   D(9,2,3,10)            27.5613         estimate D2E/DX2                !
 ! D13   D(2,3,5,7)              3.641          estimate D2E/DX2                !
 ! D14   D(2,3,5,12)          -177.8329         estimate D2E/DX2                !
 ! D15   D(10,3,5,7)          -176.4292         estimate D2E/DX2                !
 ! D16   D(10,3,5,12)            2.0969         estimate D2E/DX2                !
 ! D17   D(1,4,6,7)             -3.6299         estimate D2E/DX2                !
 ! D18   D(1,4,6,13)           177.8432         estimate D2E/DX2                !
 ! D19   D(11,4,6,7)           176.4396         estimate D2E/DX2                !
 ! D20   D(11,4,6,13)           -2.0874         estimate D2E/DX2                !
 ! D21   D(3,5,7,6)            -56.398          estimate D2E/DX2                !
 ! D22   D(3,5,7,14)          -178.6211         estimate D2E/DX2                !
 ! D23   D(12,5,7,6)           125.0157         estimate D2E/DX2                !
 ! D24   D(12,5,7,14)            2.7926         estimate D2E/DX2                !
 ! D25   D(4,6,7,5)             56.3869         estimate D2E/DX2                !
 ! D26   D(4,6,7,14)           178.6089         estimate D2E/DX2                !
 ! D27   D(13,6,7,5)          -125.026          estimate D2E/DX2                !
 ! D28   D(13,6,7,14)           -2.804          estimate D2E/DX2                !
 --------------------------------------------------------------------------------
 Trust Radius=3.00D-01 FncErr=1.00D-07 GrdErr=1.00D-07
 Number of steps in this run=  73 maximum allowed number of steps= 100.
 GradGradGradGradGradGradGradGradGradGradGradGradGradGradGradGradGradGrad

                          Input orientation:                          
 ---------------------------------------------------------------------
 Center     Atomic      Atomic             Coordinates (Angstroms)
 Number     Number       Type             X           Y           Z
 ---------------------------------------------------------------------
      1          6           0       -2.919021   -0.273070    0.000000
      2          6           0       -1.572568   -0.273070    0.000000
      3          6           0       -0.722203    0.892275    0.000000
      4          6           0       -3.769427    0.892215    0.000346
      5          6           0       -1.014208    2.080819    0.550016
      6          6           0       -3.477421    2.080747    0.550435
      7          6           0       -2.245678    2.371272    1.324747
      8          1           0       -3.455067   -1.238235   -0.051443
      9          1           0       -1.036474   -1.238216   -0.051332
     10          1           0        0.248946    0.755076   -0.509618
     11          1           0       -4.740689    0.755010   -0.509066
     12          1           0       -0.302982    2.918367    0.460659
     13          1           0       -4.188801    2.918212    0.461482
     14          1           0       -2.245629    3.447522    1.646589
 ---------------------------------------------------------------------
                    Distance matrix (angstroms):
                    1          2          3          4          5
     1  C    0.000000
     2  C    1.346453   0.000000
     3  C    2.486773   1.442619   0.000000
     4  C    1.442595   2.486781   3.047224   0.000000
     5  C    3.077600   2.480943   1.341798   3.050598   0.000000
     6  C    2.480976   3.077645   3.050684   1.341817   2.463213
     7  C    3.033297   3.033245   2.502671   2.502690   1.483607
     8  H    1.105231   2.116127   3.465583   2.154141   4.163612
     9  H    2.116158   1.105232   2.154157   3.465608   3.373145
    10  H    3.369393   2.152837   1.105289   4.052924   2.115650
    11  H    2.152805   3.369434   4.052927   1.105294   4.094641
    12  H    4.152245   3.465447   2.119670   4.041463   1.102413
    13  H    3.465485   4.152339   4.041619   2.119713   3.284373
    14  H    4.124017   4.123963   3.400201   3.400246   2.141669
                    6          7          8          9         10
     6  C    0.000000
     7  C    1.483629   0.000000
     8  H    3.373188   4.047847   0.000000
     9  H    4.163636   4.047737   2.418593   0.000000
    10  H    4.094744   3.492869   4.231185   2.415687   0.000000
    11  H    2.115648   3.492886   2.415630   4.231274   4.989635
    12  H    3.284316   2.195456   5.241682   4.251744   2.434315
    13  H    1.102416   2.195472   4.251765   5.241759   5.031480
    14  H    2.141714   1.123342   5.128584   5.128463   4.256924
                   11         12         13         14
    11  H    0.000000
    12  H    5.031275   0.000000
    13  H    2.434335   3.885819   0.000000
    14  H    4.256970   2.336731   2.336785   0.000000
 Stoichiometry    C7H7(2)
 Framework group  C1[X(C7H7)]
 Deg. of freedom    36
 Full point group                 C1      NOp   1
 Largest Abelian subgroup         C1      NOp   1
 Largest concise Abelian subgroup C1      NOp   1
                         Standard orientation:                         
 ---------------------------------------------------------------------
 Center     Atomic      Atomic             Coordinates (Angstroms)
 Number     Number       Type             X           Y           Z
 ---------------------------------------------------------------------
      1          6           0       -1.422943    0.673950    0.158823
      2          6           0       -1.423608   -0.672503    0.158984
      3          6           0       -0.325870   -1.523457   -0.230884
      4          6           0       -0.324305    1.523767   -0.230903
      5          6           0        0.978351   -1.232082   -0.110347
      6          6           0        0.979641    1.231131   -0.110223
      7          6           0        1.511923   -0.000799    0.522374
      8          1           0       -2.349412    1.210487    0.433263
      9          1           0       -2.350552   -1.208106    0.433652
     10          1           0       -0.626177   -2.494510   -0.665092
     11          1           0       -0.623589    2.495125   -0.665148
     12          1           0        1.737358   -1.943726   -0.474743
     13          1           0        1.739407    1.942092   -0.474381
     14          1           0        2.633824   -0.001409    0.465505
 ---------------------------------------------------------------------
 Rotational constants (GHZ):      3.7867249      3.7722636      1.9998603
 Standard basis: 6-311++G(d,p) (5D, 7F)
 There are   203 symmetry adapted basis functions of A   symmetry.
 Integral buffers will be    262144 words long.
 Raffenetti 2 integral format.
 Two-electron integral symmetry is turned on.
   203 basis functions,   315 primitive gaussians,   210 cartesian basis functions
    25 alpha electrons       24 beta electrons
       nuclear repulsion energy       259.8405876679 Hartrees.
 NAtoms=   14 NActive=   14 NUniq=   14 SFac= 7.50D-01 NAtFMM=   80 NAOKFM=F Big=F
 One-electron integrals computed using PRISM.
 NBasis=   203 RedAO= T  NBF=   203
 NBsUse=   203 1.00D-06 NBFU=   203
 Harris functional with IExCor=  205 diagonalized for initial guess.
 ExpMin= 3.60D-02 ExpMax= 4.56D+03 ExpMxC= 6.82D+02 IAcc=3 IRadAn=         0 AccDes= 0.00D+00
 HarFok:  IExCor=  205 AccDes= 0.00D+00 IRadAn=         0 IDoV= 1
 ScaDFX=  1.000000  1.000000  1.000000  1.000000
 FoFCou: FMM=F IPFlag=           0 FMFlag=      100000 FMFlg1=           0
         NFxFlg=           0 DoJE=T BraDBF=F KetDBF=T FulRan=T
         Omega=  0.000000  0.000000  1.000000  0.000000  0.000000 ICntrl=     500 IOpCl=  0
         NMat0=    1 NMatS0=    1 NMatT0=    0 NMatD0=    1 NMtDS0=    0 NMtDT0=    0
         I1Cent=           4 NGrid=           0.
 Petite list used in FoFCou.
 Initial guess orbital symmetries:
 Alpha Orbitals:
       Occupied  (A) (A) (A) (A) (A) (A) (A) (A) (A) (A) (A) (A)
                 (A) (A) (A) (A) (A) (A) (A) (A) (A) (A) (A) (A)
                 (A)
       Virtual   (A) (A) (A) (A) (A) (A) (A) (A) (A) (A) (A) (A)
                 (A) (A) (A) (A) (A) (A) (A) (A) (A) (A) (A) (A)
                 (A) (A) (A) (A) (A) (A) (A) (A) (A) (A) (A) (A)
                 (A) (A) (A) (A) (A) (A) (A) (A) (A) (A) (A) (A)
                 (A) (A) (A) (A) (A) (A) (A) (A) (A) (A) (A) (A)
                 (A) (A) (A) (A) (A) (A) (A) (A) (A) (A) (A) (A)
                 (A) (A) (A) (A) (A) (A) (A) (A) (A) (A) (A) (A)
                 (A) (A) (A) (A) (A) (A) (A) (A) (A) (A) (A) (A)
                 (A) (A) (A) (A) (A) (A) (A) (A) (A) (A) (A) (A)
                 (A) (A) (A) (A) (A) (A) (A) (A) (A) (A) (A) (A)
                 (A) (A) (A) (A) (A) (A) (A) (A) (A) (A) (A) (A)
                 (A) (A) (A) (A) (A) (A) (A) (A) (A) (A) (A) (A)
                 (A) (A) (A) (A) (A) (A) (A) (A) (A) (A) (A) (A)
                 (A) (A) (A) (A) (A) (A) (A) (A) (A) (A) (A) (A)
                 (A) (A) (A) (A) (A) (A) (A) (A) (A) (A)
 Beta  Orbitals:
       Occupied  (A) (A) (A) (A) (A) (A) (A) (A) (A) (A) (A) (A)
                 (A) (A) (A) (A) (A) (A) (A) (A) (A) (A) (A) (A)
       Virtual   (A) (A) (A) (A) (A) (A) (A) (A) (A) (A) (A) (A)
                 (A) (A) (A) (A) (A) (A) (A) (A) (A) (A) (A) (A)
                 (A) (A) (A) (A) (A) (A) (A) (A) (A) (A) (A) (A)
                 (A) (A) (A) (A) (A) (A) (A) (A) (A) (A) (A) (A)
                 (A) (A) (A) (A) (A) (A) (A) (A) (A) (A) (A) (A)
                 (A) (A) (A) (A) (A) (A) (A) (A) (A) (A) (A) (A)
                 (A) (A) (A) (A) (A) (A) (A) (A) (A) (A) (A) (A)
                 (A) (A) (A) (A) (A) (A) (A) (A) (A) (A) (A) (A)
                 (A) (A) (A) (A) (A) (A) (A) (A) (A) (A) (A) (A)
                 (A) (A) (A) (A) (A) (A) (A) (A) (A) (A) (A) (A)
                 (A) (A) (A) (A) (A) (A) (A) (A) (A) (A) (A) (A)
                 (A) (A) (A) (A) (A) (A) (A) (A) (A) (A) (A) (A)
                 (A) (A) (A) (A) (A) (A) (A) (A) (A) (A) (A) (A)
                 (A) (A) (A) (A) (A) (A) (A) (A) (A) (A) (A) (A)
                 (A) (A) (A) (A) (A) (A) (A) (A) (A) (A) (A)
 The electronic state of the initial guess is 2-A.
 Initial guess <Sx>= 0.0000 <Sy>= 0.0000 <Sz>= 0.5000 <S**2>= 0.7500 S= 0.5000
 Requested convergence on RMS density matrix=1.00D-08 within 128 cycles.
 Requested convergence on MAX density matrix=1.00D-06.
 Requested convergence on             energy=1.00D-06.
 No special actions if energy rises.
 Initial convergence to 1.0D-05 achieved.  Increase integral accuracy.
 Restarting incremental Fock formation.
 SCF Done:  E(UHF) =  -269.125244197     A.U. after   37 cycles
             Convg  =    0.6965D-08             -V/T =  2.0013
 <Sx>= 0.0000 <Sy>= 0.0000 <Sz>= 0.5000 <S**2>= 1.0328 S= 0.6326
 <L.S>= 0.000000000000E+00
 Annihilation of the first spin contaminant:
 S**2 before annihilation     1.0328,   after     0.8049

 **********************************************************************

            Population analysis using the SCF density.

 **********************************************************************

 Orbital symmetries:
 Alpha Orbitals:
       Occupied  (A) (A) (A) (A) (A) (A) (A) (A) (A) (A) (A) (A)
                 (A) (A) (A) (A) (A) (A) (A) (A) (A) (A) (A) (A)
                 (A)
       Virtual   (A) (A) (A) (A) (A) (A) (A) (A) (A) (A) (A) (A)
                 (A) (A) (A) (A) (A) (A) (A) (A) (A) (A) (A) (A)
                 (A) (A) (A) (A) (A) (A) (A) (A) (A) (A) (A) (A)
                 (A) (A) (A) (A) (A) (A) (A) (A) (A) (A) (A) (A)
                 (A) (A) (A) (A) (A) (A) (A) (A) (A) (A) (A) (A)
                 (A) (A) (A) (A) (A) (A) (A) (A) (A) (A) (A) (A)
                 (A) (A) (A) (A) (A) (A) (A) (A) (A) (A) (A) (A)
                 (A) (A) (A) (A) (A) (A) (A) (A) (A) (A) (A) (A)
                 (A) (A) (A) (A) (A) (A) (A) (A) (A) (A) (A) (A)
                 (A) (A) (A) (A) (A) (A) (A) (A) (A) (A) (A) (A)
                 (A) (A) (A) (A) (A) (A) (A) (A) (A) (A) (A) (A)
                 (A) (A) (A) (A) (A) (A) (A) (A) (A) (A) (A) (A)
                 (A) (A) (A) (A) (A) (A) (A) (A) (A) (A) (A) (A)
                 (A) (A) (A) (A) (A) (A) (A) (A) (A) (A) (A) (A)
                 (A) (A) (A) (A) (A) (A) (A) (A) (A) (A)
 Beta  Orbitals:
       Occupied  (A) (A) (A) (A) (A) (A) (A) (A) (A) (A) (A) (A)
                 (A) (A) (A) (A) (A) (A) (A) (A) (A) (A) (A) (A)
       Virtual   (A) (A) (A) (A) (A) (A) (A) (A) (A) (A) (A) (A)
                 (A) (A) (A) (A) (A) (A) (A) (A) (A) (A) (A) (A)
                 (A) (A) (A) (A) (A) (A) (A) (A) (A) (A) (A) (A)
                 (A) (A) (A) (A) (A) (A) (A) (A) (A) (A) (A) (A)
                 (A) (A) (A) (A) (A) (A) (A) (A) (A) (A) (A) (A)
                 (A) (A) (A) (A) (A) (A) (A) (A) (A) (A) (A) (A)
                 (A) (A) (A) (A) (A) (A) (A) (A) (A) (A) (A) (A)
                 (A) (A) (A) (A) (A) (A) (A) (A) (A) (A) (A) (A)
                 (A) (A) (A) (A) (A) (A) (A) (A) (A) (A) (A) (A)
                 (A) (A) (A) (A) (A) (A) (A) (A) (A) (A) (A) (A)
                 (A) (A) (A) (A) (A) (A) (A) (A) (A) (A) (A) (A)
                 (A) (A) (A) (A) (A) (A) (A) (A) (A) (A) (A) (A)
                 (A) (A) (A) (A) (A) (A) (A) (A) (A) (A) (A) (A)
                 (A) (A) (A) (A) (A) (A) (A) (A) (A) (A) (A) (A)
                 (A) (A) (A) (A) (A) (A) (A) (A) (A) (A) (A)
 The electronic state is 2-A.
 Alpha  occ. eigenvalues --  -11.25679 -11.24168 -11.24021 -11.23930 -11.23917
 Alpha  occ. eigenvalues --  -11.23747 -11.23736  -1.14263  -1.05393  -1.04242
 Alpha  occ. eigenvalues --   -0.91188  -0.85954  -0.71982  -0.69848  -0.69766
 Alpha  occ. eigenvalues --   -0.61776  -0.60962  -0.56010  -0.53805  -0.52765
 Alpha  occ. eigenvalues --   -0.48253  -0.48242  -0.41157  -0.39108  -0.28016
 Alpha virt. eigenvalues --    0.04086   0.04889   0.05048   0.06438   0.06560
 Alpha virt. eigenvalues --    0.08639   0.08819   0.10051   0.11464   0.12706
 Alpha virt. eigenvalues --    0.14020   0.14258   0.16196   0.17235   0.17563
 Alpha virt. eigenvalues --    0.17607   0.18160   0.18597   0.19107   0.19611
 Alpha virt. eigenvalues --    0.20185   0.20485   0.21339   0.21506   0.22100
 Alpha virt. eigenvalues --    0.22243   0.23020   0.23686   0.23756   0.24437
 Alpha virt. eigenvalues --    0.25813   0.26448   0.27477   0.28292   0.28912
 Alpha virt. eigenvalues --    0.29860   0.30044   0.33300   0.34387   0.36933
 Alpha virt. eigenvalues --    0.37524   0.39923   0.42172   0.42747   0.43906
 Alpha virt. eigenvalues --    0.44879   0.49432   0.52470   0.53742   0.56843
 Alpha virt. eigenvalues --    0.57929   0.61979   0.64944   0.67111   0.70256
 Alpha virt. eigenvalues --    0.70911   0.72448   0.73914   0.75177   0.75635
 Alpha virt. eigenvalues --    0.76193   0.77335   0.78454   0.82832   0.83106
 Alpha virt. eigenvalues --    0.84614   0.84642   0.85566   0.86764   0.87037
 Alpha virt. eigenvalues --    0.91015   0.91702   0.92397   0.95807   0.97828
 Alpha virt. eigenvalues --    0.99754   0.99930   1.02499   1.05419   1.06510
 Alpha virt. eigenvalues --    1.08186   1.10128   1.13095   1.13587   1.17346
 Alpha virt. eigenvalues --    1.19040   1.23088   1.30972   1.34491   1.38470
 Alpha virt. eigenvalues --    1.40785   1.46618   1.47205   1.59691   1.60260
 Alpha virt. eigenvalues --    1.68962   1.69275   1.73434   1.77086   1.79582
 Alpha virt. eigenvalues --    1.80412   1.81383   1.82849   1.86972   1.89917
 Alpha virt. eigenvalues --    1.90352   1.94928   1.96218   2.00474   2.01612
 Alpha virt. eigenvalues --    2.02791   2.05904   2.07095   2.09111   2.11461
 Alpha virt. eigenvalues --    2.15403   2.18011   2.19169   2.20311   2.23521
 Alpha virt. eigenvalues --    2.26777   2.28692   2.34316   2.34976   2.40870
 Alpha virt. eigenvalues --    2.40996   2.49964   2.54175   2.63639   2.65331
 Alpha virt. eigenvalues --    2.70036   2.76148   2.77043   2.78078   2.79914
 Alpha virt. eigenvalues --    2.83873   2.89789   2.90667   2.96153   2.98842
 Alpha virt. eigenvalues --    2.99669   3.00385   3.03206   3.03822   3.07026
 Alpha virt. eigenvalues --    3.07672   3.11059   3.14237   3.16121   3.21095
 Alpha virt. eigenvalues --    3.22594   3.28164   3.29391   3.40717   3.42045
 Alpha virt. eigenvalues --    3.50235   3.55133   3.59989   3.72876   3.78793
 Alpha virt. eigenvalues --    3.80182   3.91989   3.94057   3.94262   4.33178
 Alpha virt. eigenvalues --    4.36096   4.38203   4.40521   4.53222   4.68462
 Alpha virt. eigenvalues --    5.02082  24.72188  24.94938  24.98697  25.01167
 Alpha virt. eigenvalues --   25.37885  25.38094  25.41849
  Beta  occ. eigenvalues --  -11.24910 -11.24909 -11.24147 -11.23988 -11.23283
  Beta  occ. eigenvalues --  -11.22779 -11.22766  -1.12985  -1.04234  -1.03094
  Beta  occ. eigenvalues --   -0.87021  -0.86692  -0.70802  -0.69300  -0.69280
  Beta  occ. eigenvalues --   -0.61479  -0.60084  -0.54683  -0.53339  -0.50969
  Beta  occ. eigenvalues --   -0.47623  -0.45498  -0.35458  -0.34970
  Beta virt. eigenvalues --    0.03943   0.04917   0.05072   0.06478   0.06526
  Beta virt. eigenvalues --    0.07250   0.07694   0.08724   0.09001   0.11654
  Beta virt. eigenvalues --    0.13655   0.14204   0.15731   0.17293   0.17358
  Beta virt. eigenvalues --    0.17696   0.17959   0.18120   0.18710   0.19154
  Beta virt. eigenvalues --    0.19983   0.20089   0.20768   0.21036   0.21779
  Beta virt. eigenvalues --    0.22176   0.22543   0.23062   0.23770   0.24132
  Beta virt. eigenvalues --    0.25251   0.26498   0.27377   0.27736   0.28537
  Beta virt. eigenvalues --    0.29849   0.31277   0.31656   0.33972   0.34302
  Beta virt. eigenvalues --    0.37428   0.37635   0.41000   0.42797   0.43171
  Beta virt. eigenvalues --    0.44033   0.45692   0.49944   0.53289   0.54439
  Beta virt. eigenvalues --    0.56993   0.58164   0.62305   0.66215   0.68254
  Beta virt. eigenvalues --    0.71476   0.72080   0.73951   0.74916   0.75111
  Beta virt. eigenvalues --    0.75656   0.77436   0.78533   0.78584   0.82552
  Beta virt. eigenvalues --    0.83585   0.85540   0.85744   0.87434   0.87980
  Beta virt. eigenvalues --    0.89234   0.90849   0.92462   0.93005   0.96050
  Beta virt. eigenvalues --    0.98449   1.00216   1.00421   1.02964   1.05520
  Beta virt. eigenvalues --    1.06573   1.08994   1.10548   1.13687   1.13891
  Beta virt. eigenvalues --    1.18272   1.19547   1.23427   1.31907   1.35122
  Beta virt. eigenvalues --    1.39869   1.42068   1.47547   1.47884   1.60525
  Beta virt. eigenvalues --    1.61946   1.69016   1.70031   1.73994   1.76873
  Beta virt. eigenvalues --    1.80010   1.81004   1.81841   1.84146   1.88584
  Beta virt. eigenvalues --    1.89831   1.91075   1.95768   1.96665   2.01079
  Beta virt. eigenvalues --    2.01753   2.03799   2.06379   2.07471   2.08816
  Beta virt. eigenvalues --    2.11648   2.15720   2.18789   2.19333   2.21452
  Beta virt. eigenvalues --    2.23998   2.27765   2.29592   2.34823   2.35507
  Beta virt. eigenvalues --    2.41628   2.42236   2.50562   2.55355   2.63931
  Beta virt. eigenvalues --    2.66148   2.70304   2.76359   2.77616   2.78132
  Beta virt. eigenvalues --    2.80111   2.84247   2.90378   2.91314   2.96254
  Beta virt. eigenvalues --    2.99154   2.99784   3.00404   3.03310   3.03888
  Beta virt. eigenvalues --    3.07057   3.07787   3.11463   3.15587   3.15828
  Beta virt. eigenvalues --    3.21804   3.22729   3.28728   3.31846   3.42180
  Beta virt. eigenvalues --    3.43155   3.50479   3.55424   3.60567   3.73125
  Beta virt. eigenvalues --    3.79164   3.80847   3.92195   3.94122   3.94462
  Beta virt. eigenvalues --    4.33759   4.36285   4.38365   4.40723   4.53626
  Beta virt. eigenvalues --    4.68964   5.02534  24.72379  24.94905  24.99784
  Beta virt. eigenvalues --   25.01525  25.37992  25.38109  25.41873
          Condensed to atoms (all electrons):
              1          2          3          4          5          6
     1  C    6.210759  -0.203151   0.579229  -0.761484  -0.299334   0.569811
     2  C   -0.203151   6.206978  -0.757061   0.581085   0.568409  -0.300594
     3  C    0.579229  -0.757061   6.471280  -0.484130  -0.303598   0.246679
     4  C   -0.761484   0.581085  -0.484130   6.472944   0.246217  -0.302676
     5  C   -0.299334   0.568409  -0.303598   0.246217   5.816637  -0.172811
     6  C    0.569811  -0.300594   0.246679  -0.302676  -0.172811   5.817110
     7  C   -0.292030  -0.291275   0.357148   0.357692  -0.206458  -0.208381
     8  H    0.387146  -0.032145   0.004068  -0.051499   0.007562   0.018151
     9  H   -0.032180   0.387169  -0.051429   0.004171   0.018027   0.007506
    10  H    0.001932  -0.036561   0.365336  -0.010084  -0.028762   0.004088
    11  H   -0.036794   0.002130  -0.010091   0.365540   0.004069  -0.028908
    12  H   -0.022854   0.052168  -0.141153   0.008313   0.488879  -0.022557
    13  H    0.052248  -0.022920   0.008359  -0.141208  -0.022632   0.488975
    14  H   -0.005903  -0.005794   0.010446   0.010553  -0.083618  -0.083707
              7          8          9         10         11         12
     1  C   -0.292030   0.387146  -0.032180   0.001932  -0.036794  -0.022854
     2  C   -0.291275  -0.032145   0.387169  -0.036561   0.002130   0.052168
     3  C    0.357148   0.004068  -0.051429   0.365336  -0.010091  -0.141153
     4  C    0.357692  -0.051499   0.004171  -0.010084   0.365540   0.008313
     5  C   -0.206458   0.007562   0.018027  -0.028762   0.004069   0.488879
     6  C   -0.208381   0.018151   0.007506   0.004088  -0.028908  -0.022557
     7  C    6.205393  -0.010359  -0.010324   0.029824   0.029810  -0.069098
     8  H   -0.010359   0.482002   0.005116  -0.000744  -0.000462   0.000519
     9  H   -0.010324   0.005116   0.481989  -0.000431  -0.000740   0.002062
    10  H    0.029824  -0.000744  -0.000431   0.478686   0.000143  -0.002060
    11  H    0.029810  -0.000462  -0.000740   0.000143   0.478744   0.000359
    12  H   -0.069098   0.000519   0.002062  -0.002060   0.000359   0.498054
    13  H   -0.069087   0.002066   0.000516   0.000362  -0.002069  -0.000848
    14  H    0.512608  -0.000465  -0.000461   0.000857   0.000864  -0.008985
             13         14
     1  C    0.052248  -0.005903
     2  C   -0.022920  -0.005794
     3  C    0.008359   0.010446
     4  C   -0.141208   0.010553
     5  C   -0.022632  -0.083618
     6  C    0.488975  -0.083707
     7  C   -0.069087   0.512608
     8  H    0.002066  -0.000465
     9  H    0.000516  -0.000461
    10  H    0.000362   0.000857
    11  H   -0.002069   0.000864
    12  H   -0.000848  -0.008985
    13  H    0.497981  -0.008977
    14  H   -0.008977   0.582811
 Mulliken atomic charges:
              1
     1  C   -0.147394
     2  C   -0.148436
     3  C   -0.295081
     4  C   -0.295433
     5  C   -0.032586
     6  C   -0.032684
     7  C   -0.335463
     8  H    0.189045
     9  H    0.189010
    10  H    0.197414
    11  H    0.197404
    12  H    0.217199
    13  H    0.217234
    14  H    0.079771
 Sum of Mulliken atomic charges =   0.00000
 Mulliken charges with hydrogens summed into heavy atoms:
              1
     1  C    0.041651
     2  C    0.040574
     3  C   -0.097668
     4  C   -0.098029
     5  C    0.184614
     6  C    0.184550
     7  C   -0.255692
 Sum of Mulliken charges with hydrogens summed into heavy atoms =   0.00000
          Atomic-Atomic Spin Densities.
              1          2          3          4          5          6
     1  C   -0.098168   0.241429  -0.174683   0.048821   0.069819  -0.061441
     2  C    0.241429  -0.123255   0.046857  -0.176695  -0.058259   0.071389
     3  C   -0.174683   0.046857   0.634788   0.095842   0.082277  -0.057845
     4  C    0.048821  -0.176695   0.095842   0.623615  -0.057087   0.085618
     5  C    0.069819  -0.058259   0.082277  -0.057087  -0.642725   0.136862
     6  C   -0.061441   0.071389  -0.057845   0.085618   0.136862  -0.636700
     7  C   -0.022202  -0.022812  -0.004906  -0.006057  -0.170002  -0.169150
     8  H    0.001489   0.002569  -0.004924  -0.003813   0.002516   0.003024
     9  H    0.002553   0.001709  -0.004052  -0.004871   0.003059   0.002486
    10  H   -0.002108   0.006235  -0.006000   0.006969  -0.001789  -0.005651
    11  H    0.006073  -0.002057   0.007008  -0.005803  -0.005670  -0.001878
    12  H    0.003176  -0.002991   0.008624  -0.000187   0.008577   0.010649
    13  H   -0.003261   0.003358  -0.000281   0.008928   0.010670   0.008299
    14  H   -0.002087  -0.002219  -0.000943  -0.001063  -0.019746  -0.019692
              7          8          9         10         11         12
     1  C   -0.022202   0.001489   0.002553  -0.002108   0.006073   0.003176
     2  C   -0.022812   0.002569   0.001709   0.006235  -0.002057  -0.002991
     3  C   -0.004906  -0.004924  -0.004052  -0.006000   0.007008   0.008624
     4  C   -0.006057  -0.003813  -0.004871   0.006969  -0.005803  -0.000187
     5  C   -0.170002   0.002516   0.003059  -0.001789  -0.005670   0.008577
     6  C   -0.169150   0.003024   0.002486  -0.005651  -0.001878   0.010649
     7  C    1.512505  -0.002377  -0.002371   0.003354   0.003340  -0.026880
     8  H   -0.002377   0.001701   0.001852  -0.000385  -0.000961   0.000083
     9  H   -0.002371   0.001852   0.003723  -0.000939  -0.000383  -0.000079
    10  H    0.003354  -0.000385  -0.000939  -0.055288   0.000229   0.001862
    11  H    0.003340  -0.000961  -0.000383   0.000229  -0.054526  -0.000220
    12  H   -0.026880   0.000083  -0.000079   0.001862  -0.000220   0.052855
    13  H   -0.026734  -0.000088   0.000086  -0.000220   0.001897  -0.000186
    14  H    0.051888  -0.000136  -0.000139   0.000060   0.000063   0.002008
             13         14
     1  C   -0.003261  -0.002087
     2  C    0.003358  -0.002219
     3  C   -0.000281  -0.000943
     4  C    0.008928  -0.001063
     5  C    0.010670  -0.019746
     6  C    0.008299  -0.019692
     7  C   -0.026734   0.051888
     8  H   -0.000088  -0.000136
     9  H    0.000086  -0.000139
    10  H   -0.000220   0.000060
    11  H    0.001897   0.000063
    12  H   -0.000186   0.002008
    13  H    0.052114   0.002012
    14  H    0.002012  -0.093233
 Mulliken atomic spin densities:
              1
     1  C    0.009410
     2  C   -0.014740
     3  C    0.621761
     4  C    0.614217
     5  C   -0.641499
     6  C   -0.634030
     7  C    1.117595
     8  H    0.000551
     9  H    0.002636
    10  H   -0.053670
    11  H   -0.052886
    12  H    0.057290
    13  H    0.056592
    14  H   -0.083227
 Sum of Mulliken atomic spin densities =   1.00000
 Electronic spatial extent (au):  <R**2>=            644.6254
 Charge=              0.0000 electrons
 Dipole moment (field-independent basis, Debye):
    X=              0.1273    Y=             -0.0013    Z=             -0.6866  Tot=              0.6983
 Quadrupole moment (field-independent basis, Debye-Ang):
   XX=            -37.9596   YY=            -39.1619   ZZ=            -46.9890
   XY=             -0.0023   XZ=             -1.6102   YZ=              0.0015
 Traceless Quadrupole moment (field-independent basis, Debye-Ang):
   XX=              3.4106   YY=              2.2083   ZZ=             -5.6189
   XY=             -0.0023   XZ=             -1.6102   YZ=              0.0015
 Octapole moment (field-independent basis, Debye-Ang**2):
  XXX=              2.5817  YYY=             -0.0053  ZZZ=             -1.6855  XYY=             -2.7439
  XXY=              0.0011  XXZ=              0.7041  XZZ=             -0.2776  YZZ=             -0.0073
  YYZ=             -7.0568  XYZ=              0.0003
 Hexadecapole moment (field-independent basis, Debye-Ang**3):
 XXXX=           -394.6584 YYYY=           -402.7303 ZZZZ=            -85.4421 XXXY=              0.0168
 XXXZ=            -12.5231 YYYX=             -0.0265 YYYZ=              0.0039 ZZZX=             -1.9526
 ZZZY=              0.0098 XXYY=           -124.3566 XXZZ=            -90.8168 YYZZ=            -86.1633
 XXYZ=             -0.0012 YYXZ=             -3.9934 ZZXY=             -0.0010
 N-N= 2.598405876679D+02 E-N=-1.711522001531D+03  KE= 4.025004004438D+02
                          Isotropic Fermi Contact Couplings
        Atom                 a.u.       MegaHertz       Gauss      10(-4) cm-1
     1  C(13)             -0.01453     -16.33665      -5.82932      -5.44932
     2  C(13)             -0.01770     -19.90274      -7.10179      -6.63884
     3  C(13)              0.07570      85.09753      30.36491      28.38548
     4  C(13)              0.07405      83.24929      29.70541      27.76897
     5  C(13)             -0.10494    -117.96991     -42.09460     -39.35053
     6  C(13)             -0.10409    -117.01873     -41.75519     -39.03325
     7  C(13)              0.32954     370.46324     132.19049     123.57324
     8  H(1)               0.00091       4.06264       1.44965       1.35515
     9  H(1)               0.00139       6.21135       2.21636       2.07188
    10  H(1)              -0.01286     -57.46068     -20.50340     -19.16682
    11  H(1)              -0.01264     -56.48589     -20.15557     -18.84166
    12  H(1)               0.01526      68.20985      24.33897      22.75236
    13  H(1)               0.01510      67.48034      24.07866      22.50902
    14  H(1)              -0.01357     -60.64406     -21.63931     -20.22868
 --------------------------------------------------------
       Center         ----  Spin Dipole Couplings  ----
                      3XX-RR        3YY-RR        3ZZ-RR
 --------------------------------------------------------
     1   Atom       -0.029122     -0.022634      0.051756
     2   Atom       -0.022890     -0.012817      0.035707
     3   Atom       -0.262216     -0.110259      0.372474
     4   Atom       -0.259889     -0.109533      0.369422
     5   Atom        0.215647      0.041160     -0.256807
     6   Atom        0.212779      0.040325     -0.253104
     7   Atom       -0.317312     -0.433698      0.751010
     8   Atom        0.007517     -0.004099     -0.003418
     9   Atom        0.006727     -0.003220     -0.003507
    10   Atom       -0.033156      0.027740      0.005415
    11   Atom       -0.032931      0.027573      0.005358
    12   Atom        0.002908     -0.001471     -0.001436
    13   Atom        0.002861     -0.001442     -0.001419
    14   Atom        0.069934     -0.057964     -0.011970
 --------------------------------------------------------
                        XY            XZ            YZ
 --------------------------------------------------------
     1   Atom        0.004128      0.032240      0.023661
     2   Atom       -0.004189      0.024325     -0.023200
     3   Atom       -0.003084      0.023081     -0.268561
     4   Atom        0.003033      0.023043      0.266561
     5   Atom        0.008946      0.003330      0.275160
     6   Atom       -0.009277      0.002414     -0.271183
     7   Atom       -0.000001     -0.326586      0.000055
     8   Atom       -0.003783     -0.002833      0.001283
     9   Atom        0.002819     -0.002594     -0.000947
    10   Atom        0.014621      0.007746      0.016222
    11   Atom       -0.014327      0.007615     -0.016220
    12   Atom        0.024348      0.014347      0.005748
    13   Atom       -0.023984      0.014096     -0.005803
    14   Atom       -0.000151     -0.013602     -0.000017
 --------------------------------------------------------


 ---------------------------------------------------------------------------------
              Anisotropic Spin Dipole Couplings in Principal Axis System
 ---------------------------------------------------------------------------------

       Atom             a.u.   MegaHertz   Gauss  10(-4) cm-1        Axes

              Baa    -0.0415    -5.574    -1.989    -1.859  0.8841  0.2775 -0.3759
     1 C(13)  Bbb    -0.0276    -3.707    -1.323    -1.237 -0.3485  0.9275 -0.1349
              Bcc     0.0692     9.281     3.312     3.096  0.3112  0.2503  0.9168
 
              Baa    -0.0329    -4.409    -1.573    -1.471  0.8678 -0.2876 -0.4052
     2 C(13)  Bbb    -0.0199    -2.669    -0.953    -0.890  0.3921  0.8973  0.2029
              Bcc     0.0528     7.079     2.526     2.361  0.3052 -0.3349  0.8914
 
              Baa    -0.2641   -35.445   -12.648   -11.823  0.9815 -0.1609 -0.1035
     3 C(13)  Bbb    -0.2287   -30.691   -10.951   -10.237  0.1890  0.8993  0.3945
              Bcc     0.4929    66.136    23.599    22.061  0.0296 -0.4067  0.9131
 
              Baa    -0.2619   -35.139   -12.538   -11.721  0.9806  0.1651 -0.1055
     4 C(13)  Bbb    -0.2271   -30.473   -10.873   -10.165 -0.1937  0.8985 -0.3940
              Bcc     0.4889    65.611    23.412    21.886  0.0297  0.4068  0.9130
 
              Baa    -0.4207   -56.458   -20.146   -18.832  0.0027 -0.5118  0.8591
     5 C(13)  Bbb     0.1996    26.783     9.557     8.934 -0.5047  0.7409  0.4430
              Bcc     0.2211    29.675    10.589     9.899  0.8633  0.4348  0.2563
 
              Baa    -0.4147   -55.653   -19.858   -18.564  0.0043  0.5120  0.8590
     6 C(13)  Bbb     0.1967    26.392     9.417     8.804  0.4961  0.7448 -0.4464
              Bcc     0.2180    29.260    10.441     9.760  0.8683 -0.4280  0.2508
 
              Baa    -0.4337   -58.198   -20.767   -19.413 -0.0005  1.0000 -0.0002
     7 C(13)  Bbb    -0.4092   -54.916   -19.595   -18.318  0.9626  0.0006  0.2709
              Bcc     0.8429   113.114    40.362    37.731 -0.2709  0.0000  0.9626
 
              Baa    -0.0054    -2.862    -1.021    -0.955  0.2028  0.9269 -0.3159
     8 H(1)   Bbb    -0.0040    -2.144    -0.765    -0.715  0.3066  0.2463  0.9194
              Bcc     0.0094     5.006     1.786     1.670  0.9300 -0.2833 -0.2342
 
              Baa    -0.0043    -2.309    -0.824    -0.770  0.0376  0.5930  0.8043
     9 H(1)   Bbb    -0.0038    -2.025    -0.722    -0.675 -0.3399  0.7645 -0.5477
              Bcc     0.0081     4.333     1.546     1.445  0.9397  0.2528 -0.2303
 
              Baa    -0.0369   -19.687    -7.025    -6.567  0.9754 -0.1945 -0.1040
    10 H(1)   Bbb    -0.0031    -1.661    -0.593    -0.554  0.0014 -0.4659  0.8848
              Bcc     0.0400    21.348     7.618     7.121  0.2206  0.8632  0.4541
 
              Baa    -0.0366   -19.503    -6.959    -6.506  0.9760  0.1920 -0.1030
    11 H(1)   Bbb    -0.0032    -1.704    -0.608    -0.568  0.0015  0.4669  0.8843
              Bcc     0.0397    21.207     7.567     7.074 -0.2179  0.8632 -0.4554
 
              Baa    -0.0252   -13.463    -4.804    -4.491  0.7047 -0.6578 -0.2660
    12 H(1)   Bbb    -0.0064    -3.399    -1.213    -1.134 -0.1113 -0.4727  0.8742
              Bcc     0.0316    16.862     6.017     5.625  0.7007  0.5864  0.4063
 
              Baa    -0.0248   -13.228    -4.720    -4.412  0.7050  0.6592 -0.2615
    13 H(1)   Bbb    -0.0064    -3.407    -1.216    -1.137 -0.1149  0.4700  0.8751
              Bcc     0.0312    16.635     5.936     5.549  0.6998 -0.5870  0.4071
 
              Baa    -0.0580   -30.927   -11.036   -10.316  0.0013  1.0000  0.0008
    14 H(1)   Bbb    -0.0142    -7.560    -2.698    -2.522  0.1597 -0.0009  0.9872
              Bcc     0.0721    38.487    13.733    12.838  0.9872 -0.0011 -0.1597
 

 ---------------------------------------------------------------------------------

 Calling FoFJK, ICntrl=      2127 FMM=F ISym2X=0 I1Cent= 0 IOpClX= 1 NMat=1 NMatS=1 NMatT=0.
 ***** Axes restored to original set *****
 -------------------------------------------------------------------
 Center     Atomic                   Forces (Hartrees/Bohr)
 Number     Number              X              Y              Z
 -------------------------------------------------------------------
      1        6           0.010308682   -0.026532422    0.001927559
      2        6          -0.010069537   -0.026172621    0.001804871
      3        6           0.026551440   -0.003356358   -0.016998021
      4        6          -0.026675428   -0.002447182   -0.016745419
      5        6          -0.000687689    0.016985397    0.026324584
      6        6           0.000359702    0.016291682    0.026025231
      7        6           0.000159899    0.047206912   -0.053046315
      8        1           0.012224674    0.014546867   -0.000395900
      9        1          -0.012230975    0.014547948   -0.000469897
     10        1          -0.015437436    0.005244748    0.008928068
     11        1           0.015470162    0.005278021    0.008866876
     12        1          -0.006947737   -0.015935857    0.003484659
     13        1           0.006971178   -0.015935233    0.003444604
     14        1           0.000003065   -0.029721902    0.006849101
 -------------------------------------------------------------------
 Cartesian Forces:  Max     0.053046315 RMS     0.017959668

 GradGradGradGradGradGradGradGradGradGradGradGradGradGradGradGradGradGrad
 Berny optimization.
 Internal  Forces:  Max     0.026513634 RMS     0.009319013
 Search for a local minimum.
 Step number   1 out of a maximum of   73
 All quantities printed in internal units (Hartrees-Bohrs-Radians)
 Mixed Optimization -- RFO/linear search
 Second derivative matrix not updated -- first step.
     Eigenvalues ---    0.01572   0.01751   0.01878   0.02050   0.02161
     Eigenvalues ---    0.02207   0.02243   0.02348   0.02632   0.02832
     Eigenvalues ---    0.04011   0.10787   0.15979   0.15988   0.15996
     Eigenvalues ---    0.15996   0.16000   0.16000   0.19536   0.19863
     Eigenvalues ---    0.21847   0.22116   0.31227   0.32815   0.33071
     Eigenvalues ---    0.33103   0.33104   0.33110   0.33110   0.33416
     Eigenvalues ---    0.33417   0.37462   0.38585   0.53341   0.53966
     Eigenvalues ---    0.567421000.000001000.000001000.000001000.00000
     Eigenvalues --- 1000.000001000.000001000.000001000.000001000.00000
     Eigenvalues --- 1000.000001000.000001000.000001000.000001000.00000
     Eigenvalues --- 1000.000001000.000001000.000001000.000001000.00000
     Eigenvalues --- 1000.000001000.000001000.000001000.000001000.00000
     Eigenvalues --- 1000.000001000.000001000.00000
 RFO step:  Lambda=-2.89963255D-02 EMin= 1.57221346D-02
 Linear search not attempted -- first point.
 Maximum step size (   0.300) exceeded in Quadratic search.
    -- Step size scaled by   0.560
 Iteration  1 RMS(Cart)=  0.03796398 RMS(Int)=  0.00223524
 Iteration  2 RMS(Cart)=  0.00242579 RMS(Int)=  0.00154191
 Iteration  3 RMS(Cart)=  0.00000290 RMS(Int)=  0.00154191
 Iteration  4 RMS(Cart)=  0.00000001 RMS(Int)=  0.00154191
 Variable       Old X    -DE/DX   Delta X   Delta X   Delta X     New X
                                 (Linear)    (Quad)   (Total)
    R1        2.54443  -0.01399   0.00000  -0.01354  -0.01370   2.53073
    R2        2.72611   0.01471   0.00000   0.01940   0.01931   2.74542
    R3        2.08858  -0.01861   0.00000  -0.02897  -0.02897   2.05961
    R4        2.72615   0.01429   0.00000   0.01888   0.01879   2.74494
    R5        2.08859  -0.01861   0.00000  -0.02897  -0.02897   2.05961
    R6        2.53563   0.01197   0.00000   0.01129   0.01133   2.54696
    R7        2.08869  -0.01833   0.00000  -0.02854  -0.02854   2.06016
    R8        2.53567   0.01132   0.00000   0.01065   0.01068   2.54635
    R9        2.08870  -0.01834   0.00000  -0.02854  -0.02854   2.06016
   R10        2.80361  -0.01439   0.00000  -0.02152  -0.02139   2.78222
   R11        2.08326  -0.01687   0.00000  -0.02604  -0.02604   2.05722
   R12        2.80365  -0.01418   0.00000  -0.02122  -0.02109   2.78256
   R13        2.08326  -0.01688   0.00000  -0.02605  -0.02605   2.05721
   R14        2.12281  -0.02651   0.00000  -0.04354  -0.04354   2.07927
    A1        2.20123   0.00243   0.00000   0.01144   0.01029   2.21153
    A2        2.07717  -0.00484   0.00000  -0.01653  -0.01599   2.06118
    A3        2.00369   0.00252   0.00000   0.00557   0.00611   2.00981
    A4        2.20119   0.00245   0.00000   0.01153   0.01038   2.21157
    A5        2.07722  -0.00485   0.00000  -0.01658  -0.01604   2.06117
    A6        2.00368   0.00252   0.00000   0.00554   0.00609   2.00977
    A7        2.19846  -0.00207   0.00000   0.00495   0.00437   2.20283
    A8        2.00165   0.00425   0.00000   0.00706   0.00733   2.00899
    A9        2.08307  -0.00218   0.00000  -0.01200  -0.01173   2.07134
   A10        2.19852  -0.00204   0.00000   0.00491   0.00433   2.20285
   A11        2.00163   0.00425   0.00000   0.00712   0.00739   2.00902
   A12        2.08303  -0.00221   0.00000  -0.01201  -0.01175   2.07128
   A13        2.17500   0.00012   0.00000   0.01004   0.00970   2.18470
   A14        2.09363  -0.00333   0.00000  -0.01466  -0.01450   2.07914
   A15        2.01429   0.00326   0.00000   0.00477   0.00492   2.01921
   A16        2.17497   0.00017   0.00000   0.01009   0.00975   2.18472
   A17        2.09367  -0.00336   0.00000  -0.01470  -0.01454   2.07914
   A18        2.01428   0.00324   0.00000   0.00477   0.00492   2.01920
   A19        1.95871   0.01659   0.00000   0.07393   0.06933   2.02804
   A20        1.91468   0.00363   0.00000   0.05363   0.04655   1.96123
   A21        1.91471   0.00366   0.00000   0.05369   0.04661   1.96132
    D1       -0.00030   0.00002   0.00000   0.00035   0.00035   0.00006
    D2       -3.08875  -0.00287   0.00000  -0.01156  -0.01125  -3.10001
    D3        3.08834   0.00290   0.00000   0.01203   0.01173   3.10007
    D4       -0.00011   0.00000   0.00000   0.00012   0.00012   0.00001
    D5       -0.53076   0.00492   0.00000   0.02863   0.02838  -0.50239
    D6        2.60966   0.00558   0.00000   0.03807   0.03770   2.64736
    D7        2.66184   0.00234   0.00000   0.01798   0.01789   2.67973
    D8       -0.48092   0.00300   0.00000   0.02741   0.02721  -0.45371
    D9        0.53105  -0.00498   0.00000  -0.02911  -0.02886   0.50219
   D10       -2.60937  -0.00565   0.00000  -0.03882  -0.03845  -2.64782
   D11       -2.66173  -0.00239   0.00000  -0.01824  -0.01814  -2.67988
   D12        0.48104  -0.00306   0.00000  -0.02794  -0.02774   0.45330
   D13        0.06355  -0.00626   0.00000  -0.04026  -0.03964   0.02391
   D14       -3.10377  -0.00386   0.00000  -0.03279  -0.03242  -3.13619
   D15       -3.07927  -0.00556   0.00000  -0.03013  -0.02972  -3.10900
   D16        0.03660  -0.00316   0.00000  -0.02266  -0.02250   0.01410
   D17       -0.06335   0.00626   0.00000   0.04030   0.03967  -0.02368
   D18        3.10395   0.00385   0.00000   0.03254   0.03216   3.13611
   D19        3.07945   0.00557   0.00000   0.03045   0.03004   3.10949
   D20       -0.03643   0.00316   0.00000   0.02269   0.02253  -0.01390
   D21       -0.98433   0.01203   0.00000   0.10291   0.10463  -0.87971
   D22       -3.11753  -0.00651   0.00000  -0.05400  -0.05549   3.11016
   D23        2.18194   0.00981   0.00000   0.09601   0.09789   2.27982
   D24        0.04874  -0.00872   0.00000  -0.06090  -0.06223  -0.01349
   D25        0.98414  -0.01200   0.00000  -0.10282  -0.10454   0.87959
   D26        3.11731   0.00652   0.00000   0.05406   0.05555  -3.11032
   D27       -2.18212  -0.00977   0.00000  -0.09564  -0.09752  -2.27964
   D28       -0.04894   0.00875   0.00000   0.06124   0.06257   0.01363
         Item               Value     Threshold  Converged?
 Maximum Force            0.026514     0.000450     NO 
 RMS     Force            0.009319     0.000300     NO 
 Maximum Displacement     0.142416     0.001800     NO 
 RMS     Displacement     0.037362     0.001200     NO 
 Predicted change in Energy=-1.316390D-02
 GradGradGradGradGradGradGradGradGradGradGradGradGradGradGradGradGradGrad

                          Input orientation:                          
 ---------------------------------------------------------------------
 Center     Atomic      Atomic             Coordinates (Angstroms)
 Number     Number       Type             X           Y           Z
 ---------------------------------------------------------------------
      1          6           0       -2.915355   -0.274776   -0.013740
      2          6           0       -1.576152   -0.274717   -0.013983
      3          6           0       -0.707840    0.889600    0.004378
      4          6           0       -3.783867    0.889701    0.004872
      5          6           0       -0.995880    2.089235    0.547008
      6          6           0       -3.495870    2.089040    0.547381
      7          6           0       -2.245690    2.424315    1.249383
      8          1           0       -3.428623   -1.234673   -0.068831
      9          1           0       -1.062821   -1.234571   -0.069266
     10          1           0        0.265450    0.748253   -0.465984
     11          1           0       -4.757157    0.748451   -0.465520
     12          1           0       -0.257721    2.887385    0.490407
     13          1           0       -4.234064    2.887158    0.490906
     14          1           0       -2.245627    3.454528    1.635803
 ---------------------------------------------------------------------
                    Distance matrix (angstroms):
                    1          2          3          4          5
     1  C    0.000000
     2  C    1.339203   0.000000
     3  C    2.495840   1.452562   0.000000
     4  C    1.452813   2.496043   3.076027   0.000000
     5  C    3.096348   2.497938   1.347791   3.083126   0.000000
     6  C    2.497895   3.096416   3.083280   1.347468   2.499990
     7  C    3.054345   3.054365   2.504071   2.503964   1.472289
     8  H    1.089900   2.087145   3.452616   2.155133   4.164837
     9  H    2.087144   1.089901   2.154887   3.452843   3.381119
    10  H    3.371740   2.154592   1.090189   4.079054   2.101271
    11  H    2.154840   3.371877   4.078933   1.090190   4.119481
    12  H    4.161303   3.462883   2.104751   4.081689   1.088634
    13  H    3.462873   4.161354   4.081814   2.104457   3.335516
    14  H    4.132461   4.132464   3.406640   3.406531   2.147409
                    6          7          8          9         10
     6  C    0.000000
     7  C    1.472469   0.000000
     8  H    3.381022   4.065122   0.000000
     9  H    4.164897   4.065152   2.365802   0.000000
    10  H    4.119726   3.472390   4.211401   2.419355   0.000000
    11  H    2.100951   3.472302   2.419741   4.211593   5.022607
    12  H    3.335597   2.177728   5.230557   4.236973   2.400891
    13  H    1.088630   2.177877   4.236926   5.230605   5.073084
    14  H    2.147633   1.100300   5.127755   5.127762   4.248169
                   11         12         13         14
    11  H    0.000000
    12  H    5.072845   0.000000
    13  H    2.400510   3.976343   0.000000
    14  H    4.248082   2.363335   2.363595   0.000000
 Stoichiometry    C7H7(2)
 Framework group  C1[X(C7H7)]
 Deg. of freedom    36
 Full point group                 C1      NOp   1
 Largest Abelian subgroup         C1      NOp   1
 Largest concise Abelian subgroup C1      NOp   1
                         Standard orientation:                         
 ---------------------------------------------------------------------
 Center     Atomic      Atomic             Coordinates (Angstroms)
 Number     Number       Type             X           Y           Z
 ---------------------------------------------------------------------
      1          6           0        1.428242   -0.679639    0.148394
      2          6           0        1.437692    0.659531    0.148328
      3          6           0        0.337984    1.535654   -0.216344
      4          6           0        0.316075   -1.540295   -0.216328
      5          6           0       -0.975289    1.256835   -0.097536
      6          6           0       -0.992823   -1.243093   -0.097459
      7          6           0       -1.531113    0.010831    0.455788
      8          1           0        2.349413   -1.199439    0.411328
      9          1           0        2.366110    1.166304    0.411205
     10          1           0        0.632719    2.506948   -0.614128
     11          1           0        0.597028   -2.515533   -0.614437
     12          1           0       -1.705436    2.000194   -0.412857
     13          1           0       -1.733373   -1.976051   -0.412852
     14          1           0       -2.631057    0.018633    0.482683
 ---------------------------------------------------------------------
 Rotational constants (GHZ):      3.7665421      3.7556733      1.9689376
 Standard basis: 6-311++G(d,p) (5D, 7F)
 There are   203 symmetry adapted basis functions of A   symmetry.
 Integral buffers will be    262144 words long.
 Raffenetti 2 integral format.
 Two-electron integral symmetry is turned on.
   203 basis functions,   315 primitive gaussians,   210 cartesian basis functions
    25 alpha electrons       24 beta electrons
       nuclear repulsion energy       259.4949777466 Hartrees.
 NAtoms=   14 NActive=   14 NUniq=   14 SFac= 7.50D-01 NAtFMM=   80 NAOKFM=F Big=F
 One-electron integrals computed using PRISM.
 NBasis=   203 RedAO= T  NBF=   203
 NBsUse=   203 1.00D-06 NBFU=   203
 Initial guess read from the read-write file.
 B after Tr=     0.000000    0.000000    0.000000
         Rot=    1.000000    0.000000    0.000000    0.000000 Ang=   0.00 deg.
 Initial guess orbital symmetries:
 Alpha Orbitals:
       Occupied  (A) (A) (A) (A) (A) (A) (A) (A) (A) (A) (A) (A)
                 (A) (A) (A) (A) (A) (A) (A) (A) (A) (A) (A) (A)
                 (A)
       Virtual   (A) (A) (A) (A) (A) (A) (A) (A) (A) (A) (A) (A)
                 (A) (A) (A) (A) (A) (A) (A) (A) (A) (A) (A) (A)
                 (A) (A) (A) (A) (A) (A) (A) (A) (A) (A) (A) (A)
                 (A) (A) (A) (A) (A) (A) (A) (A) (A) (A) (A) (A)
                 (A) (A) (A) (A) (A) (A) (A) (A) (A) (A) (A) (A)
                 (A) (A) (A) (A) (A) (A) (A) (A) (A) (A) (A) (A)
                 (A) (A) (A) (A) (A) (A) (A) (A) (A) (A) (A) (A)
                 (A) (A) (A) (A) (A) (A) (A) (A) (A) (A) (A) (A)
                 (A) (A) (A) (A) (A) (A) (A) (A) (A) (A) (A) (A)
                 (A) (A) (A) (A) (A) (A) (A) (A) (A) (A) (A) (A)
                 (A) (A) (A) (A) (A) (A) (A) (A) (A) (A) (A) (A)
                 (A) (A) (A) (A) (A) (A) (A) (A) (A) (A) (A) (A)
                 (A) (A) (A) (A) (A) (A) (A) (A) (A) (A) (A) (A)
                 (A) (A) (A) (A) (A) (A) (A) (A) (A) (A) (A) (A)
                 (A) (A) (A) (A) (A) (A) (A) (A) (A) (A)
 Beta  Orbitals:
       Occupied  (A) (A) (A) (A) (A) (A) (A) (A) (A) (A) (A) (A)
                 (A) (A) (A) (A) (A) (A) (A) (A) (A) (A) (A) (A)
       Virtual   (A) (A) (A) (A) (A) (A) (A) (A) (A) (A) (A) (A)
                 (A) (A) (A) (A) (A) (A) (A) (A) (A) (A) (A) (A)
                 (A) (A) (A) (A) (A) (A) (A) (A) (A) (A) (A) (A)
                 (A) (A) (A) (A) (A) (A) (A) (A) (A) (A) (A) (A)
                 (A) (A) (A) (A) (A) (A) (A) (A) (A) (A) (A) (A)
                 (A) (A) (A) (A) (A) (A) (A) (A) (A) (A) (A) (A)
                 (A) (A) (A) (A) (A) (A) (A) (A) (A) (A) (A) (A)
                 (A) (A) (A) (A) (A) (A) (A) (A) (A) (A) (A) (A)
                 (A) (A) (A) (A) (A) (A) (A) (A) (A) (A) (A) (A)
                 (A) (A) (A) (A) (A) (A) (A) (A) (A) (A) (A) (A)
                 (A) (A) (A) (A) (A) (A) (A) (A) (A) (A) (A) (A)
                 (A) (A) (A) (A) (A) (A) (A) (A) (A) (A) (A) (A)
                 (A) (A) (A) (A) (A) (A) (A) (A) (A) (A) (A) (A)
                 (A) (A) (A) (A) (A) (A) (A) (A) (A) (A) (A) (A)
                 (A) (A) (A) (A) (A) (A) (A) (A) (A) (A) (A)
 Initial guess <Sx>= 0.0000 <Sy>= 0.0000 <Sz>= 0.5000 <S**2>= 1.3330 S= 0.7582
 Harris functional with IExCor=  205 diagonalized for initial guess.
 ExpMin= 3.60D-02 ExpMax= 4.56D+03 ExpMxC= 6.82D+02 IAcc=3 IRadAn=         0 AccDes= 0.00D+00
 HarFok:  IExCor=  205 AccDes= 0.00D+00 IRadAn=         0 IDoV= 1
 ScaDFX=  1.000000  1.000000  1.000000  1.000000
 FoFCou: FMM=F IPFlag=           0 FMFlag=      100000 FMFlg1=           0
         NFxFlg=           0 DoJE=T BraDBF=F KetDBF=T FulRan=T
         Omega=  0.000000  0.000000  1.000000  0.000000  0.000000 ICntrl=     500 IOpCl=  0
         NMat0=    1 NMatS0=    1 NMatT0=    0 NMatD0=    1 NMtDS0=    0 NMtDT0=    0
         I1Cent=           4 NGrid=           0.
 Petite list used in FoFCou.
 Requested convergence on RMS density matrix=1.00D-08 within 128 cycles.
 Requested convergence on MAX density matrix=1.00D-06.
 Requested convergence on             energy=1.00D-06.
 No special actions if energy rises.
 Initial convergence to 1.0D-05 achieved.  Increase integral accuracy.
 SCF Done:  E(UHF) =  -269.138650181     A.U. after   32 cycles
             Convg  =    0.3558D-08             -V/T =  2.0008
 <Sx>= 0.0000 <Sy>= 0.0000 <Sz>= 0.5000 <S**2>= 1.0779 S= 0.6523
 <L.S>= 0.000000000000E+00
 Annihilation of the first spin contaminant:
 S**2 before annihilation     1.0779,   after     0.8235
 Calling FoFJK, ICntrl=      2127 FMM=F ISym2X=0 I1Cent= 0 IOpClX= 1 NMat=1 NMatS=1 NMatT=0.
 ***** Axes restored to original set *****
 -------------------------------------------------------------------
 Center     Atomic                   Forces (Hartrees/Bohr)
 Number     Number              X              Y              Z
 -------------------------------------------------------------------
      1        6           0.006914139   -0.013693314    0.001617516
      2        6          -0.006538083   -0.013083497    0.001432140
      3        6           0.015026170   -0.004614851   -0.011520352
      4        6          -0.015248857   -0.003299029   -0.011159625
      5        6          -0.008971054    0.010418133    0.022527990
      6        6           0.008454513    0.009452954    0.022132075
      7        6           0.000285874    0.028487411   -0.042939539
      8        1           0.005487859    0.006820618   -0.000551450
      9        1          -0.005495594    0.006817839   -0.000675257
     10        1          -0.007262938    0.002751387    0.004502715
     11        1           0.007315786    0.002788341    0.004388751
     12        1          -0.002272739   -0.008156578    0.003152286
     13        1           0.002307549   -0.008133719    0.003095576
     14        1          -0.000002627   -0.016555696    0.003997174
 -------------------------------------------------------------------
 Cartesian Forces:  Max     0.042939539 RMS     0.011924629

 GradGradGradGradGradGradGradGradGradGradGradGradGradGradGradGradGradGrad
 Berny optimization.
 Using GEDIIS/GDIIS optimizer.
 Internal  Forces:  Max     0.014885714 RMS     0.005917892
 Search for a local minimum.
 Step number   2 out of a maximum of   73
 All quantities printed in internal units (Hartrees-Bohrs-Radians)
 Mixed Optimization -- RFO/linear search
 Update second derivatives using D2CorX and points    1    2
 DE= -1.34D-02 DEPred=-1.32D-02 R= 1.02D+00
 SS=  1.41D+00  RLast= 2.99D-01 DXNew= 5.0454D-01 8.9780D-01
 Trust test= 1.02D+00 RLast= 2.99D-01 DXMaxT set to 5.05D-01
 Use linear search instead of GDIIS.
 Linear search step of   0.599 exceeds DXMaxT=   0.505 but not scaled.
 Quartic linear search produced a step of  2.00000.
 Iteration  1 RMS(Cart)=  0.06675862 RMS(Int)=  0.00993598
 Iteration  2 RMS(Cart)=  0.00814418 RMS(Int)=  0.00833955
 Iteration  3 RMS(Cart)=  0.00003039 RMS(Int)=  0.00833947
 Iteration  4 RMS(Cart)=  0.00000048 RMS(Int)=  0.00833947
 Variable       Old X    -DE/DX   Delta X   Delta X   Delta X     New X
                                 (Linear)    (Quad)   (Total)
    R1        2.53073  -0.00738  -0.02740   0.00000  -0.02812   2.50260
    R2        2.74542   0.00847   0.03862   0.00000   0.03818   2.78360
    R3        2.05961  -0.00856  -0.05794   0.00000  -0.05794   2.00167
    R4        2.74494   0.00782   0.03758   0.00000   0.03714   2.78208
    R5        2.05961  -0.00856  -0.05794   0.00000  -0.05794   2.00167
    R6        2.54696   0.01040   0.02265   0.00000   0.02280   2.56976
    R7        2.06016  -0.00878  -0.05707   0.00000  -0.05707   2.00309
    R8        2.54635   0.00952   0.02136   0.00000   0.02151   2.56786
    R9        2.06016  -0.00879  -0.05709   0.00000  -0.05709   2.00307
   R10        2.78222  -0.01489  -0.04278   0.00000  -0.04214   2.74008
   R11        2.05722  -0.00769  -0.05208   0.00000  -0.05208   2.00515
   R12        2.78256  -0.01454  -0.04218   0.00000  -0.04154   2.74102
   R13        2.05721  -0.00769  -0.05211   0.00000  -0.05211   2.00511
   R14        2.07927  -0.01410  -0.08708   0.00000  -0.08708   1.99218
    A1        2.21153   0.00094   0.02059   0.00000   0.01406   2.22559
    A2        2.06118  -0.00205  -0.03199   0.00000  -0.02892   2.03226
    A3        2.00981   0.00118   0.01223   0.00000   0.01535   2.02516
    A4        2.21157   0.00098   0.02076   0.00000   0.01423   2.22580
    A5        2.06117  -0.00208  -0.03209   0.00000  -0.02902   2.03215
    A6        2.00977   0.00117   0.01218   0.00000   0.01529   2.02507
    A7        2.20283  -0.00199   0.00874   0.00000   0.00576   2.20859
    A8        2.00899   0.00284   0.01467   0.00000   0.01612   2.02511
    A9        2.07134  -0.00086  -0.02346   0.00000  -0.02215   2.04919
   A10        2.20285  -0.00195   0.00866   0.00000   0.00571   2.20856
   A11        2.00902   0.00282   0.01478   0.00000   0.01623   2.02525
   A12        2.07128  -0.00087  -0.02349   0.00000  -0.02218   2.04910
   A13        2.18470   0.00100   0.01940   0.00000   0.01765   2.20235
   A14        2.07914  -0.00254  -0.02899   0.00000  -0.02817   2.05097
   A15        2.01921   0.00157   0.00984   0.00000   0.01064   2.02985
   A16        2.18472   0.00105   0.01950   0.00000   0.01776   2.20248
   A17        2.07914  -0.00256  -0.02907   0.00000  -0.02826   2.05087
   A18        2.01920   0.00153   0.00984   0.00000   0.01062   2.02982
   A19        2.02804   0.01136   0.13866   0.00000   0.10944   2.13748
   A20        1.96123   0.00088   0.09310   0.00000   0.05479   2.01602
   A21        1.96132   0.00090   0.09322   0.00000   0.05492   2.01624
    D1        0.00006   0.00004   0.00071   0.00000   0.00071   0.00076
    D2       -3.10001  -0.00213  -0.02250   0.00000  -0.01991  -3.11992
    D3        3.10007   0.00218   0.02345   0.00000   0.02086   3.12093
    D4        0.00001   0.00001   0.00024   0.00000   0.00025   0.00025
    D5       -0.50239   0.00371   0.05675   0.00000   0.05406  -0.44833
    D6        2.64736   0.00437   0.07539   0.00000   0.07194   2.71930
    D7        2.67973   0.00169   0.03578   0.00000   0.03489   2.71461
    D8       -0.45371   0.00235   0.05441   0.00000   0.05276  -0.40095
    D9        0.50219  -0.00380  -0.05772   0.00000  -0.05502   0.44717
   D10       -2.64782  -0.00449  -0.07690   0.00000  -0.07346  -2.72128
   D11       -2.67988  -0.00175  -0.03629   0.00000  -0.03539  -2.71526
   D12        0.45330  -0.00245  -0.05548   0.00000  -0.05382   0.39947
   D13        0.02391  -0.00443  -0.07928   0.00000  -0.07441  -0.05051
   D14       -3.13619  -0.00303  -0.06483   0.00000  -0.06196   3.08504
   D15       -3.10900  -0.00373  -0.05945   0.00000  -0.05592   3.11827
   D16        0.01410  -0.00233  -0.04500   0.00000  -0.04347  -0.02937
   D17       -0.02368   0.00443   0.07935   0.00000   0.07448   0.05080
   D18        3.13611   0.00300   0.06433   0.00000   0.06146  -3.08562
   D19        3.10949   0.00376   0.06009   0.00000   0.05655  -3.11714
   D20       -0.01390   0.00234   0.04507   0.00000   0.04353   0.02963
   D21       -0.87971   0.00924   0.20925   0.00000   0.21564  -0.66407
   D22        3.11016  -0.00415  -0.11099   0.00000  -0.11598   2.99418
   D23        2.27982   0.00793   0.19577   0.00000   0.20369   2.48351
   D24       -0.01349  -0.00547  -0.12447   0.00000  -0.12793  -0.14142
   D25        0.87959  -0.00922  -0.20909   0.00000  -0.21550   0.66409
   D26       -3.11032   0.00417   0.11111   0.00000   0.11610  -2.99422
   D27       -2.27964  -0.00787  -0.19505   0.00000  -0.20298  -2.48262
   D28        0.01363   0.00551   0.12514   0.00000   0.12862   0.14225
         Item               Value     Threshold  Converged?
 Maximum Force            0.014886     0.000450     NO 
 RMS     Force            0.005918     0.000300     NO 
 Maximum Displacement     0.268842     0.001800     NO 
 RMS     Displacement     0.065737     0.001200     NO 
 Predicted change in Energy=-1.045423D-02
 GradGradGradGradGradGradGradGradGradGradGradGradGradGradGradGradGradGrad

                          Input orientation:                          
 ---------------------------------------------------------------------
 Center     Atomic      Atomic             Coordinates (Angstroms)
 Number     Number       Type             X           Y           Z
 ---------------------------------------------------------------------
      1          6           0       -2.907825   -0.280118   -0.038123
      2          6           0       -1.583504   -0.279934   -0.038824
      3          6           0       -0.686826    0.886524    0.013703
      4          6           0       -3.805018    0.886955    0.014502
      5          6           0       -0.974715    2.105965    0.542185
      6          6           0       -3.517255    2.105520    0.542491
      7          6           0       -2.245704    2.515720    1.107119
      8          1           0       -3.379361   -1.226559   -0.100495
      9          1           0       -1.111874   -1.226278   -0.101938
     10          1           0        0.285952    0.743667   -0.382364
     11          1           0       -4.777626    0.744416   -0.382079
     12          1           0       -0.200496    2.831492    0.551046
     13          1           0       -4.291363    2.831142    0.550909
     14          1           0       -2.245604    3.450416    1.594683
 ---------------------------------------------------------------------
                    Distance matrix (angstroms):
                    1          2          3          4          5
     1  C    0.000000
     2  C    1.324321   0.000000
     3  C    2.509297   1.472214   0.000000
     4  C    1.473019   2.509900   3.118192   0.000000
     5  C    3.125229   2.529961   1.359856   3.126507   0.000000
     6  C    2.529780   3.125334   3.126803   1.358853   2.542539
     7  C    3.093007   3.093117   2.505981   2.505623   1.449987
     8  H    1.059239   2.031011   3.424603   2.159017   4.159456
     9  H    2.030943   1.059239   2.158234   3.425250   3.396697
    10  H    3.371476   2.158853   1.059988   4.112672   2.073627
    11  H    2.159661   3.371874   4.112357   1.059981   4.143695
    12  H    4.166397   3.455666   2.075610   4.130579   1.061077
    13  H    3.455586   4.166422   4.130716   2.074638   3.395012
    14  H    4.125708   4.125800   3.391581   3.391176   2.128487
                    6          7          8          9         10
     6  C    0.000000
     7  C    1.450485   0.000000
     8  H    3.396351   4.092452   0.000000
     9  H    4.159570   4.092669   2.267487   0.000000
    10  H    4.144199   3.430454   4.170823   2.431716   0.000000
    11  H    2.072672   3.430139   2.432937   4.171313   5.063579
    12  H    3.395290   2.142850   5.195909   4.209810   2.338140
    13  H    1.061056   2.143264   4.209633   5.195961   5.116675
    14  H    2.129072   1.054217   5.102267   5.102483   4.200473
                   11         12         13         14
    11  H    0.000000
    12  H    5.116320   0.000000
    13  H    2.336951   4.090867   0.000000
    14  H    4.200138   2.377963   2.378675   0.000000
 Stoichiometry    C7H7(2)
 Framework group  C1[X(C7H7)]
 Deg. of freedom    36
 Full point group                 C1      NOp   1
 Largest Abelian subgroup         C1      NOp   1
 Largest concise Abelian subgroup C1      NOp   1
                         Standard orientation:                         
 ---------------------------------------------------------------------
 Center     Atomic      Atomic             Coordinates (Angstroms)
 Number     Number       Type             X           Y           Z
 ---------------------------------------------------------------------
      1          6           0        0.467206    1.526177    0.127796
      2          6           0       -0.845838    1.353721    0.127293
      3          6           0       -1.588562    0.122814   -0.189943
      4          6           0        1.503150    0.528323   -0.189840
      5          6           0       -1.130671   -1.152218   -0.072307
      6          6           0        1.390164   -0.820714   -0.072300
      7          6           0        0.203383   -1.548605    0.334680
      8          1           0        0.815196    2.497731    0.366491
      9          1           0       -1.432997    2.202562    0.365410
     10          1           0       -2.587012    0.254165   -0.520730
     11          1           0        2.433531    0.912936   -0.521539
     12          1           0       -1.808269   -1.938601   -0.292189
     13          1           0        2.247696   -1.405367   -0.292891
     14          1           0        0.338865   -2.580414    0.503175
 ---------------------------------------------------------------------
 Rotational constants (GHZ):      3.7492607      3.7281640      1.9258131
 Standard basis: 6-311++G(d,p) (5D, 7F)
 There are   203 symmetry adapted basis functions of A   symmetry.
 Integral buffers will be    262144 words long.
 Raffenetti 2 integral format.
 Two-electron integral symmetry is turned on.
   203 basis functions,   315 primitive gaussians,   210 cartesian basis functions
    25 alpha electrons       24 beta electrons
       nuclear repulsion energy       259.3330073002 Hartrees.
 NAtoms=   14 NActive=   14 NUniq=   14 SFac= 7.50D-01 NAtFMM=   80 NAOKFM=F Big=F
 One-electron integrals computed using PRISM.
 NBasis=   203 RedAO= T  NBF=   203
 NBsUse=   203 1.00D-06 NBFU=   203
 Initial guess read from the read-write file.
 B after Tr=     0.000000    0.000000    0.000000
         Rot=    1.000000    0.000000    0.000000    0.000000 Ang=   0.00 deg.
 Initial guess orbital symmetries:
 Alpha Orbitals:
       Occupied  (A) (A) (A) (A) (A) (A) (A) (A) (A) (A) (A) (A)
                 (A) (A) (A) (A) (A) (A) (A) (A) (A) (A) (A) (A)
                 (A)
       Virtual   (A) (A) (A) (A) (A) (A) (A) (A) (A) (A) (A) (A)
                 (A) (A) (A) (A) (A) (A) (A) (A) (A) (A) (A) (A)
                 (A) (A) (A) (A) (A) (A) (A) (A) (A) (A) (A) (A)
                 (A) (A) (A) (A) (A) (A) (A) (A) (A) (A) (A) (A)
                 (A) (A) (A) (A) (A) (A) (A) (A) (A) (A) (A) (A)
                 (A) (A) (A) (A) (A) (A) (A) (A) (A) (A) (A) (A)
                 (A) (A) (A) (A) (A) (A) (A) (A) (A) (A) (A) (A)
                 (A) (A) (A) (A) (A) (A) (A) (A) (A) (A) (A) (A)
                 (A) (A) (A) (A) (A) (A) (A) (A) (A) (A) (A) (A)
                 (A) (A) (A) (A) (A) (A) (A) (A) (A) (A) (A) (A)
                 (A) (A) (A) (A) (A) (A) (A) (A) (A) (A) (A) (A)
                 (A) (A) (A) (A) (A) (A) (A) (A) (A) (A) (A) (A)
                 (A) (A) (A) (A) (A) (A) (A) (A) (A) (A) (A) (A)
                 (A) (A) (A) (A) (A) (A) (A) (A) (A) (A) (A) (A)
                 (A) (A) (A) (A) (A) (A) (A) (A) (A) (A)
 Beta  Orbitals:
       Occupied  (A) (A) (A) (A) (A) (A) (A) (A) (A) (A) (A) (A)
                 (A) (A) (A) (A) (A) (A) (A) (A) (A) (A) (A) (A)
       Virtual   (A) (A) (A) (A) (A) (A) (A) (A) (A) (A) (A) (A)
                 (A) (A) (A) (A) (A) (A) (A) (A) (A) (A) (A) (A)
                 (A) (A) (A) (A) (A) (A) (A) (A) (A) (A) (A) (A)
                 (A) (A) (A) (A) (A) (A) (A) (A) (A) (A) (A) (A)
                 (A) (A) (A) (A) (A) (A) (A) (A) (A) (A) (A) (A)
                 (A) (A) (A) (A) (A) (A) (A) (A) (A) (A) (A) (A)
                 (A) (A) (A) (A) (A) (A) (A) (A) (A) (A) (A) (A)
                 (A) (A) (A) (A) (A) (A) (A) (A) (A) (A) (A) (A)
                 (A) (A) (A) (A) (A) (A) (A) (A) (A) (A) (A) (A)
                 (A) (A) (A) (A) (A) (A) (A) (A) (A) (A) (A) (A)
                 (A) (A) (A) (A) (A) (A) (A) (A) (A) (A) (A) (A)
                 (A) (A) (A) (A) (A) (A) (A) (A) (A) (A) (A) (A)
                 (A) (A) (A) (A) (A) (A) (A) (A) (A) (A) (A) (A)
                 (A) (A) (A) (A) (A) (A) (A) (A) (A) (A) (A) (A)
                 (A) (A) (A) (A) (A) (A) (A) (A) (A) (A) (A)
 Initial guess <Sx>= 0.0000 <Sy>= 0.0000 <Sz>= 0.5000 <S**2>= 1.3722 S= 0.7737
 Harris functional with IExCor=  205 diagonalized for initial guess.
 ExpMin= 3.60D-02 ExpMax= 4.56D+03 ExpMxC= 6.82D+02 IAcc=3 IRadAn=         0 AccDes= 0.00D+00
 HarFok:  IExCor=  205 AccDes= 0.00D+00 IRadAn=         0 IDoV= 1
 ScaDFX=  1.000000  1.000000  1.000000  1.000000
 FoFCou: FMM=F IPFlag=           0 FMFlag=      100000 FMFlg1=           0
         NFxFlg=           0 DoJE=T BraDBF=F KetDBF=T FulRan=T
         Omega=  0.000000  0.000000  1.000000  0.000000  0.000000 ICntrl=     500 IOpCl=  0
         NMat0=    1 NMatS0=    1 NMatT0=    0 NMatD0=    1 NMtDS0=    0 NMtDT0=    0
         I1Cent=           4 NGrid=           0.
 Petite list used in FoFCou.
 Requested convergence on RMS density matrix=1.00D-08 within 128 cycles.
 Requested convergence on MAX density matrix=1.00D-06.
 Requested convergence on             energy=1.00D-06.
 No special actions if energy rises.
 Initial convergence to 1.0D-05 achieved.  Increase integral accuracy.
 SCF Done:  E(UHF) =  -269.149827053     A.U. after   29 cycles
             Convg  =    0.7396D-08             -V/T =  1.9997
 <Sx>= 0.0000 <Sy>= 0.0000 <Sz>= 0.5000 <S**2>= 1.1356 S= 0.6771
 <L.S>= 0.000000000000E+00
 Annihilation of the first spin contaminant:
 S**2 before annihilation     1.1356,   after     0.8493
 Calling FoFJK, ICntrl=      2127 FMM=F ISym2X=0 I1Cent= 0 IOpClX= 1 NMat=1 NMatS=1 NMatT=0.
 ***** Axes restored to original set *****
 -------------------------------------------------------------------
 Center     Atomic                   Forces (Hartrees/Bohr)
 Number     Number              X              Y              Z
 -------------------------------------------------------------------
      1        6          -0.003080755    0.015367429    0.001874183
      2        6           0.003283673    0.015786395    0.001785544
      3        6          -0.011013528   -0.005787854   -0.001255568
      4        6           0.010836937   -0.005295460   -0.001114430
      5        6          -0.023942734   -0.007142584    0.013130992
      6        6           0.023673320   -0.007441464    0.013057362
      7        6           0.000206683   -0.007333781   -0.033015843
      8        1          -0.008730697   -0.011514722   -0.001546393
      9        1           0.008721085   -0.011528980   -0.001655646
     10        1           0.012255806   -0.003017265   -0.003924383
     11        1          -0.012221020   -0.003036097   -0.004023712
     12        1           0.010159969    0.007834701    0.003555969
     13        1          -0.010129426    0.007901893    0.003502547
     14        1          -0.000019313    0.015207789    0.009629377
 -------------------------------------------------------------------
 Cartesian Forces:  Max     0.033015843 RMS     0.010903540

 GradGradGradGradGradGradGradGradGradGradGradGradGradGradGradGradGradGrad
 Berny optimization.
 Using GEDIIS/GDIIS optimizer.
 Internal  Forces:  Max     0.017937085 RMS     0.005884220
 Search for a local minimum.
 Step number   3 out of a maximum of   73
 All quantities printed in internal units (Hartrees-Bohrs-Radians)
 Mixed Optimization -- RFO/linear search
 Update second derivatives using D2CorX and points    2    3
 Use linear search instead of GDIIS.
     Eigenvalues ---    0.01249   0.01731   0.01744   0.01990   0.02043
     Eigenvalues ---    0.02065   0.02165   0.02200   0.02355   0.02600
     Eigenvalues ---    0.02614   0.14369   0.15854   0.15995   0.15997
     Eigenvalues ---    0.15998   0.16000   0.16079   0.20358   0.20867
     Eigenvalues ---    0.21742   0.21800   0.28952   0.31706   0.33104
     Eigenvalues ---    0.33107   0.33110   0.33326   0.33417   0.33548
     Eigenvalues ---    0.37735   0.38022   0.40620   0.53577   0.53751
     Eigenvalues ---    0.570641000.000001000.000001000.000001000.00000
     Eigenvalues --- 1000.000001000.000001000.000001000.000001000.00000
     Eigenvalues --- 1000.000001000.000001000.000001000.000001000.00000
     Eigenvalues --- 1000.000001000.000001000.000001000.000001000.00000
     Eigenvalues --- 1000.000001000.000001000.000001000.000001000.00000
     Eigenvalues --- 1000.000001000.000001000.00000
 RFO step:  Lambda=-1.16968348D-02 EMin= 1.24921767D-02
 Quartic linear search produced a step of  0.06654.
 Iteration  1 RMS(Cart)=  0.06138929 RMS(Int)=  0.00536005
 Iteration  2 RMS(Cart)=  0.00534903 RMS(Int)=  0.00272033
 Iteration  3 RMS(Cart)=  0.00003959 RMS(Int)=  0.00272013
 Iteration  4 RMS(Cart)=  0.00000010 RMS(Int)=  0.00272013
 Variable       Old X    -DE/DX   Delta X   Delta X   Delta X     New X
                                 (Linear)    (Quad)   (Total)
    R1        2.50260   0.00956  -0.00187   0.01376   0.01242   2.51503
    R2        2.78360  -0.00447   0.00254  -0.00940  -0.00653   2.77707
    R3        2.00167   0.01427  -0.00386   0.03743   0.03358   2.03525
    R4        2.78208  -0.00483   0.00247  -0.01039  -0.00760   2.77449
    R5        2.00167   0.01428  -0.00386   0.03748   0.03362   2.03529
    R6        2.56976   0.00683   0.00152   0.01331   0.01470   2.58446
    R7        2.00309   0.01312  -0.00380   0.03417   0.03037   2.03346
    R8        2.56786   0.00664   0.00143   0.01281   0.01413   2.58199
    R9        2.00307   0.01313  -0.00380   0.03419   0.03039   2.03347
   R10        2.74008  -0.01232  -0.00280  -0.03614  -0.03942   2.70066
   R11        2.00515   0.01280  -0.00347   0.03329   0.02982   2.03497
   R12        2.74102  -0.01211  -0.00276  -0.03549  -0.03873   2.70229
   R13        2.00511   0.01282  -0.00347   0.03335   0.02988   2.03499
   R14        1.99218   0.01794  -0.00579   0.04878   0.04299   2.03517
    A1        2.22559  -0.00067   0.00094   0.00798   0.00679   2.23238
    A2        2.03226   0.00303  -0.00192   0.01038   0.00937   2.04163
    A3        2.02516  -0.00234   0.00102  -0.01792  -0.01599   2.00917
    A4        2.22580  -0.00061   0.00095   0.00830   0.00711   2.23291
    A5        2.03215   0.00298  -0.00193   0.01011   0.00909   2.04124
    A6        2.02507  -0.00236   0.00102  -0.01797  -0.01605   2.00902
    A7        2.20859  -0.00182   0.00038   0.00582   0.00386   2.21245
    A8        2.02511  -0.00004   0.00107  -0.00749  -0.00538   2.01973
    A9        2.04919   0.00185  -0.00147   0.00106   0.00054   2.04974
   A10        2.20856  -0.00183   0.00038   0.00576   0.00382   2.21238
   A11        2.02525  -0.00009   0.00108  -0.00772  -0.00559   2.01966
   A12        2.04910   0.00190  -0.00148   0.00139   0.00088   2.04998
   A13        2.20235   0.00290   0.00117   0.03081   0.02887   2.23122
   A14        2.05097  -0.00105  -0.00187  -0.01424  -0.01456   2.03641
   A15        2.02985  -0.00185   0.00071  -0.01656  -0.01430   2.01555
   A16        2.20248   0.00287   0.00118   0.03064   0.02872   2.23119
   A17        2.05087  -0.00099  -0.00188  -0.01393  -0.01426   2.03661
   A18        2.02982  -0.00187   0.00071  -0.01670  -0.01444   2.01538
   A19        2.13748   0.00369   0.00728   0.05734   0.05107   2.18855
   A20        2.01602  -0.00032   0.00365   0.02282   0.01641   2.03244
   A21        2.01624  -0.00035   0.00365   0.02265   0.01625   2.03249
    D1        0.00076   0.00004   0.00005   0.00126   0.00130   0.00206
    D2       -3.11992  -0.00113  -0.00132  -0.02551  -0.02651   3.13675
    D3        3.12093   0.00119   0.00139   0.02728   0.02834  -3.13391
    D4        0.00025   0.00002   0.00002   0.00052   0.00053   0.00078
    D5       -0.44833   0.00223   0.00360   0.05910   0.06210  -0.38623
    D6        2.71930   0.00277   0.00479   0.08589   0.08967   2.80897
    D7        2.71461   0.00103   0.00232   0.03286   0.03522   2.74983
    D8       -0.40095   0.00156   0.00351   0.05966   0.06279  -0.33816
    D9        0.44717  -0.00227  -0.00366  -0.06049  -0.06356   0.38361
   D10       -2.72128  -0.00285  -0.00489  -0.08870  -0.09258  -2.81386
   D11       -2.71526  -0.00105  -0.00235  -0.03353  -0.03593  -2.75120
   D12        0.39947  -0.00162  -0.00358  -0.06174  -0.06495   0.33452
   D13       -0.05051  -0.00185  -0.00495  -0.05107  -0.05479  -0.10529
   D14        3.08504  -0.00141  -0.00412  -0.04921  -0.05243   3.03261
   D15        3.11827  -0.00124  -0.00372  -0.02240  -0.02525   3.09302
   D16       -0.02937  -0.00080  -0.00289  -0.02054  -0.02289  -0.05227
   D17        0.05080   0.00183   0.00496   0.05068   0.05441   0.10521
   D18       -3.08562   0.00136   0.00409   0.04770   0.05089  -3.03473
   D19       -3.11714   0.00126   0.00376   0.02344   0.02633  -3.09081
   D20        0.02963   0.00079   0.00290   0.02046   0.02281   0.05244
   D21       -0.66407   0.00568   0.01435   0.20482   0.22072  -0.44335
   D22        2.99418  -0.00050  -0.00772  -0.01770  -0.02613   2.96805
   D23        2.48351   0.00524   0.01355   0.20298   0.21839   2.70190
   D24       -0.14142  -0.00094  -0.00851  -0.01955  -0.02846  -0.16989
   D25        0.66409  -0.00568  -0.01434  -0.20437  -0.22025   0.44384
   D26       -2.99422   0.00051   0.00773   0.01823   0.02665  -2.96756
   D27       -2.48262  -0.00521  -0.01351  -0.20141  -0.21677  -2.69939
   D28        0.14225   0.00098   0.00856   0.02118   0.03014   0.17239
         Item               Value     Threshold  Converged?
 Maximum Force            0.017937     0.000450     NO 
 RMS     Force            0.005884     0.000300     NO 
 Maximum Displacement     0.215278     0.001800     NO 
 RMS     Displacement     0.064519     0.001200     NO 
 Predicted change in Energy=-7.489116D-03
 GradGradGradGradGradGradGradGradGradGradGradGradGradGradGradGradGradGrad

                          Input orientation:                          
 ---------------------------------------------------------------------
 Center     Atomic      Atomic             Coordinates (Angstroms)
 Number     Number       Type             X           Y           Z
 ---------------------------------------------------------------------
      1          6           0       -2.911047   -0.277163   -0.071310
      2          6           0       -1.580153   -0.276621   -0.072882
      3          6           0       -0.677881    0.877384    0.025970
      4          6           0       -3.814248    0.877866    0.027428
      5          6           0       -0.975835    2.107357    0.544452
      6          6           0       -3.516433    2.106895    0.544779
      7          6           0       -2.245678    2.585408    0.993198
      8          1           0       -3.399305   -1.234210   -0.146209
      9          1           0       -1.091660   -1.233422   -0.149697
     10          1           0        0.332805    0.709509   -0.303028
     11          1           0       -4.824453    0.710278   -0.303198
     12          1           0       -0.160693    2.805599    0.631787
     13          1           0       -4.331047    2.805989    0.630325
     14          1           0       -2.245590    3.524061    1.521200
 ---------------------------------------------------------------------
                    Distance matrix (angstroms):
                    1          2          3          4          5
     1  C    0.000000
     2  C    1.330895   0.000000
     3  C    2.515845   1.468195   0.000000
     4  C    1.469562   2.516760   3.136367   0.000000
     5  C    3.132115   2.535676   1.367638   3.136168   0.000000
     6  C    2.535704   3.132385   3.136597   1.366331   2.540598
     7  C    3.125733   3.125805   2.512143   2.511737   1.429128
     8  H    1.077007   2.057101   3.448858   2.159443   4.185246
     9  H    2.056878   1.077031   2.158142   3.449840   3.414098
    10  H    3.398499   2.164447   1.076061   4.163603   2.093976
    11  H    2.165625   3.398896   4.162972   1.076064   4.181172
    12  H    4.190729   3.465762   2.086267   4.174909   1.076859
    13  H    3.466196   4.190990   4.174971   2.085240   3.428251
    14  H    4.174713   4.174816   3.420281   3.419707   2.138543
                    6          7          8          9         10
     6  C    0.000000
     7  C    1.429991   0.000000
     8  H    3.413821   4.149528   0.000000
     9  H    4.185636   4.149871   2.307647   0.000000
    10  H    4.181878   3.442059   4.210853   2.414041   0.000000
    11  H    2.092969   3.441923   2.415933   4.211327   5.157258
    12  H    3.428811   2.127501   5.235832   4.217951   2.347554
    13  H    1.076868   2.128167   4.218336   5.236306   5.197874
    14  H    2.139346   1.076966   5.172278   5.172727   4.230559
                   11         12         13         14
    11  H    0.000000
    12  H    5.197616   0.000000
    13  H    2.346682   4.170353   0.000000
    14  H    4.230406   2.377822   2.378742   0.000000
 Stoichiometry    C7H7(2)
 Framework group  C1[X(C7H7)]
 Deg. of freedom    36
 Full point group                 C1      NOp   1
 Largest Abelian subgroup         C1      NOp   1
 Largest concise Abelian subgroup C1      NOp   1
                         Standard orientation:                         
 ---------------------------------------------------------------------
 Center     Atomic      Atomic             Coordinates (Angstroms)
 Number     Number       Type             X           Y           Z
 ---------------------------------------------------------------------
      1          6           0        1.312291   -0.925631    0.102556
      2          6           0        1.559976    0.382012    0.101242
      3          6           0        0.619495    1.478563   -0.160802
      4          6           0        0.034842   -1.602830   -0.160384
      5          6           0       -0.742690    1.433327   -0.047487
      6          6           0       -1.215230   -1.062939   -0.047698
      7          6           0       -1.561934    0.296020    0.231403
      8          1           0        2.138506   -1.579147    0.326680
      9          1           0        2.568341    0.688113    0.323722
     10          1           0        1.064309    2.423030   -0.421629
     11          1           0        0.103741   -2.643983   -0.423378
     12          1           0       -1.269981    2.362889   -0.179789
     13          1           0       -2.046114   -1.734605   -0.182392
     14          1           0       -2.599294    0.492567    0.443796
 ---------------------------------------------------------------------
 Rotational constants (GHZ):      3.7283765      3.7260062      1.8971860
 Standard basis: 6-311++G(d,p) (5D, 7F)
 There are   203 symmetry adapted basis functions of A   symmetry.
 Integral buffers will be    262144 words long.
 Raffenetti 2 integral format.
 Two-electron integral symmetry is turned on.
   203 basis functions,   315 primitive gaussians,   210 cartesian basis functions
    25 alpha electrons       24 beta electrons
       nuclear repulsion energy       258.5804341265 Hartrees.
 NAtoms=   14 NActive=   14 NUniq=   14 SFac= 7.50D-01 NAtFMM=   80 NAOKFM=F Big=F
 One-electron integrals computed using PRISM.
 NBasis=   203 RedAO= T  NBF=   203
 NBsUse=   203 1.00D-06 NBFU=   203
 Initial guess read from the read-write file.
 B after Tr=     0.000000    0.000000    0.000000
         Rot=    1.000000    0.000000    0.000000    0.000000 Ang=   0.00 deg.
 Initial guess orbital symmetries:
 Alpha Orbitals:
       Occupied  (A) (A) (A) (A) (A) (A) (A) (A) (A) (A) (A) (A)
                 (A) (A) (A) (A) (A) (A) (A) (A) (A) (A) (A) (A)
                 (A)
       Virtual   (A) (A) (A) (A) (A) (A) (A) (A) (A) (A) (A) (A)
                 (A) (A) (A) (A) (A) (A) (A) (A) (A) (A) (A) (A)
                 (A) (A) (A) (A) (A) (A) (A) (A) (A) (A) (A) (A)
                 (A) (A) (A) (A) (A) (A) (A) (A) (A) (A) (A) (A)
                 (A) (A) (A) (A) (A) (A) (A) (A) (A) (A) (A) (A)
                 (A) (A) (A) (A) (A) (A) (A) (A) (A) (A) (A) (A)
                 (A) (A) (A) (A) (A) (A) (A) (A) (A) (A) (A) (A)
                 (A) (A) (A) (A) (A) (A) (A) (A) (A) (A) (A) (A)
                 (A) (A) (A) (A) (A) (A) (A) (A) (A) (A) (A) (A)
                 (A) (A) (A) (A) (A) (A) (A) (A) (A) (A) (A) (A)
                 (A) (A) (A) (A) (A) (A) (A) (A) (A) (A) (A) (A)
                 (A) (A) (A) (A) (A) (A) (A) (A) (A) (A) (A) (A)
                 (A) (A) (A) (A) (A) (A) (A) (A) (A) (A) (A) (A)
                 (A) (A) (A) (A) (A) (A) (A) (A) (A) (A) (A) (A)
                 (A) (A) (A) (A) (A) (A) (A) (A) (A) (A)
 Beta  Orbitals:
       Occupied  (A) (A) (A) (A) (A) (A) (A) (A) (A) (A) (A) (A)
                 (A) (A) (A) (A) (A) (A) (A) (A) (A) (A) (A) (A)
       Virtual   (A) (A) (A) (A) (A) (A) (A) (A) (A) (A) (A) (A)
                 (A) (A) (A) (A) (A) (A) (A) (A) (A) (A) (A) (A)
                 (A) (A) (A) (A) (A) (A) (A) (A) (A) (A) (A) (A)
                 (A) (A) (A) (A) (A) (A) (A) (A) (A) (A) (A) (A)
                 (A) (A) (A) (A) (A) (A) (A) (A) (A) (A) (A) (A)
                 (A) (A) (A) (A) (A) (A) (A) (A) (A) (A) (A) (A)
                 (A) (A) (A) (A) (A) (A) (A) (A) (A) (A) (A) (A)
                 (A) (A) (A) (A) (A) (A) (A) (A) (A) (A) (A) (A)
                 (A) (A) (A) (A) (A) (A) (A) (A) (A) (A) (A) (A)
                 (A) (A) (A) (A) (A) (A) (A) (A) (A) (A) (A) (A)
                 (A) (A) (A) (A) (A) (A) (A) (A) (A) (A) (A) (A)
                 (A) (A) (A) (A) (A) (A) (A) (A) (A) (A) (A) (A)
                 (A) (A) (A) (A) (A) (A) (A) (A) (A) (A) (A) (A)
                 (A) (A) (A) (A) (A) (A) (A) (A) (A) (A) (A) (A)
                 (A) (A) (A) (A) (A) (A) (A) (A) (A) (A) (A)
 Initial guess <Sx>= 0.0000 <Sy>= 0.0000 <Sz>= 0.5000 <S**2>= 1.4941 S= 0.8206
 Harris functional with IExCor=  205 diagonalized for initial guess.
 ExpMin= 3.60D-02 ExpMax= 4.56D+03 ExpMxC= 6.82D+02 IAcc=3 IRadAn=         0 AccDes= 0.00D+00
 HarFok:  IExCor=  205 AccDes= 0.00D+00 IRadAn=         0 IDoV= 1
 ScaDFX=  1.000000  1.000000  1.000000  1.000000
 FoFCou: FMM=F IPFlag=           0 FMFlag=      100000 FMFlg1=           0
         NFxFlg=           0 DoJE=T BraDBF=F KetDBF=T FulRan=T
         Omega=  0.000000  0.000000  1.000000  0.000000  0.000000 ICntrl=     500 IOpCl=  0
         NMat0=    1 NMatS0=    1 NMatT0=    0 NMatD0=    1 NMtDS0=    0 NMtDT0=    0
         I1Cent=           4 NGrid=           0.
 Petite list used in FoFCou.
 Requested convergence on RMS density matrix=1.00D-08 within 128 cycles.
 Requested convergence on MAX density matrix=1.00D-06.
 Requested convergence on             energy=1.00D-06.
 No special actions if energy rises.
 Initial convergence to 1.0D-05 achieved.  Increase integral accuracy.
 SCF Done:  E(UHF) =  -269.157710699     A.U. after   29 cycles
             Convg  =    0.4719D-08             -V/T =  2.0004
 <Sx>= 0.0000 <Sy>= 0.0000 <Sz>= 0.5000 <S**2>= 1.1522 S= 0.6842
 <L.S>= 0.000000000000E+00
 Annihilation of the first spin contaminant:
 S**2 before annihilation     1.1522,   after     0.8549
 Calling FoFJK, ICntrl=      2127 FMM=F ISym2X=0 I1Cent= 0 IOpClX= 1 NMat=1 NMatS=1 NMatT=0.
 ***** Axes restored to original set *****
 -------------------------------------------------------------------
 Center     Atomic                   Forces (Hartrees/Bohr)
 Number     Number              X              Y              Z
 -------------------------------------------------------------------
      1        6           0.000067507    0.000682437    0.000975039
      2        6           0.001231355    0.002636320    0.000882777
      3        6          -0.000704436   -0.006091144   -0.004284001
      4        6          -0.000170030   -0.002621533   -0.003327460
      5        6          -0.007353464    0.003389060    0.007511872
      6        6           0.006008175    0.001233908    0.006696209
      7        6           0.000842005    0.001707130   -0.009885692
      8        1          -0.000670089   -0.000079353   -0.001060461
      9        1           0.000669058   -0.000077011   -0.001354311
     10        1           0.000663563   -0.000527571    0.001243788
     11        1          -0.000601999   -0.000450744    0.001034937
     12        1           0.001207802   -0.000199055    0.001904280
     13        1          -0.001181965   -0.000151065    0.001757961
     14        1          -0.000007481    0.000548621   -0.002094940
 -------------------------------------------------------------------
 Cartesian Forces:  Max     0.009885692 RMS     0.003133852

 GradGradGradGradGradGradGradGradGradGradGradGradGradGradGradGradGradGrad
 Berny optimization.
 Using GEDIIS/GDIIS optimizer.
 Internal  Forces:  Max     0.005705034 RMS     0.001642819
 Search for a local minimum.
 Step number   4 out of a maximum of   73
 All quantities printed in internal units (Hartrees-Bohrs-Radians)
 Mixed Optimization -- RFO/linear search
 Update second derivatives using D2CorX and points    3    4
 DE= -7.88D-03 DEPred=-7.49D-03 R= 1.05D+00
 SS=  1.41D+00  RLast= 5.13D-01 DXNew= 8.4853D-01 1.5396D+00
 Trust test= 1.05D+00 RLast= 5.13D-01 DXMaxT set to 8.49D-01
 Use linear search instead of GDIIS.
     Eigenvalues ---    0.00901   0.01677   0.01732   0.01963   0.02043
     Eigenvalues ---    0.02131   0.02179   0.02200   0.02311   0.02567
     Eigenvalues ---    0.02610   0.15548   0.15869   0.15983   0.15989
     Eigenvalues ---    0.16000   0.16000   0.16056   0.21168   0.21337
     Eigenvalues ---    0.21676   0.21767   0.28255   0.31730   0.33104
     Eigenvalues ---    0.33107   0.33110   0.33325   0.33417   0.33704
     Eigenvalues ---    0.37784   0.38223   0.41583   0.53909   0.54275
     Eigenvalues ---    0.557441000.000001000.000001000.000001000.00000
     Eigenvalues --- 1000.000001000.000001000.000001000.000001000.00000
     Eigenvalues --- 1000.000001000.000001000.000001000.000001000.00000
     Eigenvalues --- 1000.000001000.000001000.000001000.000001000.00000
     Eigenvalues --- 1000.000001000.000001000.000001000.000001000.00000
     Eigenvalues --- 1000.000001000.000001000.00000
 RFO step:  Lambda=-3.85939602D-03 EMin= 9.00625594D-03
 Quartic linear search produced a step of  0.58405.
 Iteration  1 RMS(Cart)=  0.08692966 RMS(Int)=  0.01625690
 Iteration  2 RMS(Cart)=  0.01473872 RMS(Int)=  0.00348089
 Iteration  3 RMS(Cart)=  0.00028343 RMS(Int)=  0.00347620
 Iteration  4 RMS(Cart)=  0.00000039 RMS(Int)=  0.00347620
 Variable       Old X    -DE/DX   Delta X   Delta X   Delta X     New X
                                 (Linear)    (Quad)   (Total)
    R1        2.51503   0.00034   0.00726  -0.00805   0.00125   2.51628
    R2        2.77707  -0.00070  -0.00382   0.00422   0.00169   2.77876
    R3        2.03525   0.00045   0.01961  -0.01631   0.00330   2.03855
    R4        2.77449  -0.00287  -0.00444  -0.00366  -0.00685   2.76763
    R5        2.03529   0.00047   0.01964  -0.01623   0.00340   2.03869
    R6        2.58446   0.00532   0.00859   0.01404   0.02213   2.60659
    R7        2.03346   0.00033   0.01774  -0.01581   0.00193   2.03539
    R8        2.58199   0.00334   0.00825   0.00874   0.01656   2.59855
    R9        2.03347   0.00032   0.01775  -0.01586   0.00189   2.03536
   R10        2.70066  -0.00571  -0.02302  -0.01817  -0.04304   2.65762
   R11        2.03497   0.00094   0.01742  -0.01226   0.00516   2.04012
   R12        2.70229  -0.00477  -0.02262  -0.01443  -0.03887   2.66342
   R13        2.03499   0.00094   0.01745  -0.01230   0.00515   2.04014
   R14        2.03517  -0.00055   0.02511  -0.02739  -0.00228   2.03289
    A1        2.23238  -0.00013   0.00397   0.00525   0.00626   2.23864
    A2        2.04163   0.00059   0.00547  -0.00482   0.00202   2.04364
    A3        2.00917  -0.00046  -0.00934  -0.00041  -0.00839   2.00078
    A4        2.23291   0.00000   0.00416   0.00626   0.00741   2.24032
    A5        2.04124   0.00052   0.00531  -0.00540   0.00128   2.04252
    A6        2.00902  -0.00051  -0.00937  -0.00085  -0.00885   2.00017
    A7        2.21245  -0.00027   0.00226   0.00902   0.00568   2.21813
    A8        2.01973   0.00004  -0.00314  -0.00178  -0.00232   2.01741
    A9        2.04974   0.00021   0.00032  -0.00775  -0.00495   2.04479
   A10        2.21238  -0.00024   0.00223   0.00874   0.00551   2.21789
   A11        2.01966   0.00005  -0.00327  -0.00132  -0.00197   2.01768
   A12        2.04998   0.00019   0.00051  -0.00766  -0.00464   2.04535
   A13        2.23122   0.00049   0.01686   0.01461   0.02253   2.25375
   A14        2.03641  -0.00040  -0.00850  -0.01164  -0.01574   2.02068
   A15        2.01555  -0.00009  -0.00835  -0.00292  -0.00685   2.00870
   A16        2.23119   0.00046   0.01677   0.01387   0.02176   2.25296
   A17        2.03661  -0.00040  -0.00833  -0.01144  -0.01544   2.02117
   A18        2.01538  -0.00006  -0.00844  -0.00240  -0.00648   2.00890
   A19        2.18855   0.00154   0.02982   0.02598   0.03703   2.22558
   A20        2.03244  -0.00052   0.00959  -0.01236  -0.00653   2.02591
   A21        2.03249  -0.00052   0.00949  -0.01234  -0.00659   2.02589
    D1        0.00206   0.00008   0.00076   0.00518   0.00589   0.00795
    D2        3.13675  -0.00024  -0.01549   0.00646  -0.00880   3.12796
    D3       -3.13391   0.00036   0.01655   0.00188   0.01814  -3.11577
    D4        0.00078   0.00005   0.00031   0.00316   0.00345   0.00423
    D5       -0.38623   0.00140   0.03627   0.06198   0.09783  -0.28839
    D6        2.80897   0.00150   0.05237   0.06771   0.11918   2.92815
    D7        2.74983   0.00113   0.02057   0.06522   0.08586   2.83570
    D8       -0.33816   0.00122   0.03667   0.07095   0.10721  -0.23095
    D9        0.38361  -0.00155  -0.03712  -0.06788  -0.10462   0.27899
   D10       -2.81386  -0.00173  -0.05407  -0.07964  -0.13279  -2.94665
   D11       -2.75120  -0.00124  -0.02099  -0.06913  -0.09026  -2.84145
   D12        0.33452  -0.00143  -0.03793  -0.08088  -0.11843   0.21609
   D13       -0.10529  -0.00065  -0.03200  -0.01968  -0.05025  -0.15554
   D14        3.03261  -0.00019  -0.03062  -0.00398  -0.03352   2.99908
   D15        3.09302  -0.00045  -0.01475  -0.00792  -0.02176   3.07125
   D16       -0.05227   0.00000  -0.01337   0.00778  -0.00504  -0.05731
   D17        0.10521   0.00057   0.03178   0.01792   0.04831   0.15352
   D18       -3.03473   0.00007   0.02972  -0.00217   0.02655  -3.00818
   D19       -3.09081   0.00047   0.01538   0.01228   0.02674  -3.06406
   D20        0.05244  -0.00003   0.01332  -0.00780   0.00499   0.05743
   D21       -0.44335   0.00330   0.12891   0.15336   0.28351  -0.15984
   D22        2.96805   0.00117  -0.01526   0.15012   0.13465   3.10271
   D23        2.70190   0.00285   0.12755   0.13783   0.26690   2.96880
   D24       -0.16989   0.00073  -0.01662   0.13459   0.11804  -0.05185
   D25        0.44384  -0.00329  -0.12864  -0.15144  -0.28125   0.16259
   D26       -2.96756  -0.00117   0.01557  -0.14821  -0.13238  -3.09995
   D27       -2.69939  -0.00279  -0.12660  -0.13157  -0.25963  -2.95901
   D28        0.17239  -0.00067   0.01760  -0.12834  -0.11076   0.06163
         Item               Value     Threshold  Converged?
 Maximum Force            0.005705     0.000450     NO 
 RMS     Force            0.001643     0.000300     NO 
 Maximum Displacement     0.413636     0.001800     NO 
 RMS     Displacement     0.100266     0.001200     NO 
 Predicted change in Energy=-3.426000D-03
 GradGradGradGradGradGradGradGradGradGradGradGradGradGradGradGradGradGrad

                          Input orientation:                          
 ---------------------------------------------------------------------
 Center     Atomic      Atomic             Coordinates (Angstroms)
 Number     Number       Type             X           Y           Z
 ---------------------------------------------------------------------
      1          6           0       -2.910445   -0.275522   -0.113548
      2          6           0       -1.578901   -0.273263   -0.119000
      3          6           0       -0.671152    0.861992    0.060294
      4          6           0       -3.822300    0.864147    0.065108
      5          6           0       -0.984331    2.105159    0.569272
      6          6           0       -3.509901    2.104639    0.569564
      7          6           0       -2.245481    2.646464    0.876389
      8          1           0       -3.400638   -1.228103   -0.240063
      9          1           0       -1.087594   -1.224243   -0.253645
     10          1           0        0.364260    0.669937   -0.165844
     11          1           0       -4.856514    0.673730   -0.167730
     12          1           0       -0.147613    2.763298    0.748892
     13          1           0       -4.345539    2.766384    0.740814
     14          1           0       -2.245069    3.634311    1.302313
 ---------------------------------------------------------------------
                    Distance matrix (angstroms):
                    1          2          3          4          5
     1  C    0.000000
     2  C    1.331557   0.000000
     3  C    2.517656   1.464567   0.000000
     4  C    1.470457   2.521990   3.151153   0.000000
     5  C    3.137483   2.546394   1.379349   3.138210   0.000000
     6  C    2.547775   3.139633   3.140386   1.375096   2.525570
     7  C    3.155971   3.155936   2.515723   2.514197   1.406354
     8  H    1.078752   2.060365   3.450914   2.156024   4.195736
     9  H    2.059729   1.078831   2.150432   3.455661   3.431147
    10  H    3.408859   2.160485   1.077080   4.197421   2.102132
    11  H    2.165918   3.412025   4.195795   1.077066   4.193563
    12  H    4.196603   3.467351   2.088834   4.192572   1.079587
    13  H    3.470248   4.199169   4.194156   2.085393   3.429922
    14  H    4.211197   4.211062   3.421342   3.419377   2.113082
                    6          7          8          9         10
     6  C    0.000000
     7  C    1.409423   0.000000
     8  H    3.431414   4.194416   0.000000
     9  H    4.198416   4.195241   2.313088   0.000000
    10  H    4.196227   3.435645   4.216933   2.388201   0.000000
    11  H    2.098683   3.435020   2.396200   4.220716   5.220776
    12  H    3.430885   2.104984   5.243233   4.217716   2.341136
    13  H    1.079595   2.107844   4.220294   5.246738   5.234437
    14  H    2.115802   1.075757   5.230424   5.231281   4.213265
                   11         12         13         14
    11  H    0.000000
    12  H    5.232614   0.000000
    13  H    2.337894   4.197936   0.000000
    14  H    4.212566   2.337576   2.341058   0.000000
 Stoichiometry    C7H7(2)
 Framework group  C1[X(C7H7)]
 Deg. of freedom    36
 Full point group                 C1      NOp   1
 Largest Abelian subgroup         C1      NOp   1
 Largest concise Abelian subgroup C1      NOp   1
                         Standard orientation:                         
 ---------------------------------------------------------------------
 Center     Atomic      Atomic             Coordinates (Angstroms)
 Number     Number       Type             X           Y           Z
 ---------------------------------------------------------------------
      1          6           0       -1.415220   -0.781709   -0.065382
      2          6           0       -1.522604    0.545501   -0.060358
      3          6           0       -0.464089    1.542391    0.114897
      4          6           0       -0.205301   -1.598117    0.113000
      5          6           0        0.896089    1.338664    0.009936
      6          6           0        1.100282   -1.178638    0.011126
      7          6           0        1.605481    0.130931   -0.116457
      8          1           0       -2.318120   -1.347015   -0.235398
      9          1           0       -2.505972    0.958398   -0.222775
     10          1           0       -0.799071    2.554092    0.270941
     11          1           0       -0.373106   -2.649274    0.277257
     12          1           0        1.507619    2.227864    0.039271
     13          1           0        1.848167   -1.956220    0.050608
     14          1           0        2.672650    0.218014   -0.220475
 ---------------------------------------------------------------------
 Rotational constants (GHZ):      3.7527188      3.7056267      1.8767204
 Standard basis: 6-311++G(d,p) (5D, 7F)
 There are   203 symmetry adapted basis functions of A   symmetry.
 Integral buffers will be    262144 words long.
 Raffenetti 2 integral format.
 Two-electron integral symmetry is turned on.
   203 basis functions,   315 primitive gaussians,   210 cartesian basis functions
    25 alpha electrons       24 beta electrons
       nuclear repulsion energy       258.5193170281 Hartrees.
 NAtoms=   14 NActive=   14 NUniq=   14 SFac= 7.50D-01 NAtFMM=   80 NAOKFM=F Big=F
 One-electron integrals computed using PRISM.
 NBasis=   203 RedAO= T  NBF=   203
 NBsUse=   203 1.00D-06 NBFU=   203
 Initial guess read from the read-write file.
 B after Tr=     0.000000    0.000000    0.000000
         Rot=    1.000000    0.000000    0.000000    0.000000 Ang=   0.00 deg.
 Initial guess orbital symmetries:
 Alpha Orbitals:
       Occupied  (A) (A) (A) (A) (A) (A) (A) (A) (A) (A) (A) (A)
                 (A) (A) (A) (A) (A) (A) (A) (A) (A) (A) (A) (A)
                 (A)
       Virtual   (A) (A) (A) (A) (A) (A) (A) (A) (A) (A) (A) (A)
                 (A) (A) (A) (A) (A) (A) (A) (A) (A) (A) (A) (A)
                 (A) (A) (A) (A) (A) (A) (A) (A) (A) (A) (A) (A)
                 (A) (A) (A) (A) (A) (A) (A) (A) (A) (A) (A) (A)
                 (A) (A) (A) (A) (A) (A) (A) (A) (A) (A) (A) (A)
                 (A) (A) (A) (A) (A) (A) (A) (A) (A) (A) (A) (A)
                 (A) (A) (A) (A) (A) (A) (A) (A) (A) (A) (A) (A)
                 (A) (A) (A) (A) (A) (A) (A) (A) (A) (A) (A) (A)
                 (A) (A) (A) (A) (A) (A) (A) (A) (A) (A) (A) (A)
                 (A) (A) (A) (A) (A) (A) (A) (A) (A) (A) (A) (A)
                 (A) (A) (A) (A) (A) (A) (A) (A) (A) (A) (A) (A)
                 (A) (A) (A) (A) (A) (A) (A) (A) (A) (A) (A) (A)
                 (A) (A) (A) (A) (A) (A) (A) (A) (A) (A) (A) (A)
                 (A) (A) (A) (A) (A) (A) (A) (A) (A) (A) (A) (A)
                 (A) (A) (A) (A) (A) (A) (A) (A) (A) (A)
 Beta  Orbitals:
       Occupied  (A) (A) (A) (A) (A) (A) (A) (A) (A) (A) (A) (A)
                 (A) (A) (A) (A) (A) (A) (A) (A) (A) (A) (A) (A)
       Virtual   (A) (A) (A) (A) (A) (A) (A) (A) (A) (A) (A) (A)
                 (A) (A) (A) (A) (A) (A) (A) (A) (A) (A) (A) (A)
                 (A) (A) (A) (A) (A) (A) (A) (A) (A) (A) (A) (A)
                 (A) (A) (A) (A) (A) (A) (A) (A) (A) (A) (A) (A)
                 (A) (A) (A) (A) (A) (A) (A) (A) (A) (A) (A) (A)
                 (A) (A) (A) (A) (A) (A) (A) (A) (A) (A) (A) (A)
                 (A) (A) (A) (A) (A) (A) (A) (A) (A) (A) (A) (A)
                 (A) (A) (A) (A) (A) (A) (A) (A) (A) (A) (A) (A)
                 (A) (A) (A) (A) (A) (A) (A) (A) (A) (A) (A) (A)
                 (A) (A) (A) (A) (A) (A) (A) (A) (A) (A) (A) (A)
                 (A) (A) (A) (A) (A) (A) (A) (A) (A) (A) (A) (A)
                 (A) (A) (A) (A) (A) (A) (A) (A) (A) (A) (A) (A)
                 (A) (A) (A) (A) (A) (A) (A) (A) (A) (A) (A) (A)
                 (A) (A) (A) (A) (A) (A) (A) (A) (A) (A) (A) (A)
                 (A) (A) (A) (A) (A) (A) (A) (A) (A) (A) (A)
 Initial guess <Sx>= 0.0000 <Sy>= 0.0000 <Sz>= 0.5000 <S**2>= 1.4860 S= 0.8176
 Harris functional with IExCor=  205 diagonalized for initial guess.
 ExpMin= 3.60D-02 ExpMax= 4.56D+03 ExpMxC= 6.82D+02 IAcc=3 IRadAn=         0 AccDes= 0.00D+00
 HarFok:  IExCor=  205 AccDes= 0.00D+00 IRadAn=         0 IDoV= 1
 ScaDFX=  1.000000  1.000000  1.000000  1.000000
 FoFCou: FMM=F IPFlag=           0 FMFlag=      100000 FMFlg1=           0
         NFxFlg=           0 DoJE=T BraDBF=F KetDBF=T FulRan=T
         Omega=  0.000000  0.000000  1.000000  0.000000  0.000000 ICntrl=     500 IOpCl=  0
         NMat0=    1 NMatS0=    1 NMatT0=    0 NMatD0=    1 NMtDS0=    0 NMtDT0=    0
         I1Cent=           4 NGrid=           0.
 Petite list used in FoFCou.
 Requested convergence on RMS density matrix=1.00D-08 within 128 cycles.
 Requested convergence on MAX density matrix=1.00D-06.
 Requested convergence on             energy=1.00D-06.
 No special actions if energy rises.
 Restarting incremental Fock formation.
 Initial convergence to 1.0D-05 achieved.  Increase integral accuracy.
 SCF Done:  E(UHF) =  -269.161111876     A.U. after   35 cycles
             Convg  =    0.7337D-08             -V/T =  2.0002
 <Sx>= 0.0000 <Sy>= 0.0000 <Sz>= 0.5000 <S**2>= 1.1792 S= 0.6955
 <L.S>= 0.000000000000E+00
 Annihilation of the first spin contaminant:
 S**2 before annihilation     1.1792,   after     0.8705
 Calling FoFJK, ICntrl=      2127 FMM=F ISym2X=0 I1Cent= 0 IOpClX= 1 NMat=1 NMatS=1 NMatT=0.
 ***** Axes restored to original set *****
 -------------------------------------------------------------------
 Center     Atomic                   Forces (Hartrees/Bohr)
 Number     Number              X              Y              Z
 -------------------------------------------------------------------
      1        6          -0.001186551   -0.003085365   -0.000407912
      2        6           0.005149137    0.003173944    0.000245103
      3        6          -0.001770447   -0.006565903   -0.000806259
      4        6          -0.000804786    0.004258527    0.002285553
      5        6           0.005514167    0.001972879    0.000117553
      6        6          -0.009592358   -0.004621109   -0.002490181
      7        6           0.002636997    0.004497721    0.001577033
      8        1           0.000656658    0.000911664   -0.000760618
      9        1          -0.000708158    0.000880916   -0.001312604
     10        1          -0.000501652   -0.000149751    0.001647261
     11        1           0.000594916   -0.000122087    0.001326738
     12        1          -0.000565512   -0.000758766   -0.000695599
     13        1           0.000584510   -0.000714895   -0.000839377
     14        1          -0.000006921    0.000322224    0.000113309
 -------------------------------------------------------------------
 Cartesian Forces:  Max     0.009592358 RMS     0.002739509

 GradGradGradGradGradGradGradGradGradGradGradGradGradGradGradGradGradGrad
 Berny optimization.
 Using GEDIIS/GDIIS optimizer.
 Internal  Forces:  Max     0.008157393 RMS     0.001633179
 Search for a local minimum.
 Step number   5 out of a maximum of   73
 All quantities printed in internal units (Hartrees-Bohrs-Radians)
 Mixed Optimization -- RFO/linear search
 Update second derivatives using D2CorX and points    4    5
 DE= -3.40D-03 DEPred=-3.43D-03 R= 9.93D-01
 SS=  1.41D+00  RLast= 6.85D-01 DXNew= 1.4270D+00 2.0554D+00
 Trust test= 9.93D-01 RLast= 6.85D-01 DXMaxT set to 1.43D+00
 Use linear search instead of GDIIS.
     Eigenvalues ---    0.00787   0.01544   0.01727   0.01914   0.02041
     Eigenvalues ---    0.02146   0.02189   0.02196   0.02260   0.02604
     Eigenvalues ---    0.02623   0.15844   0.15913   0.15966   0.15979
     Eigenvalues ---    0.15998   0.15999   0.16070   0.21699   0.21719
     Eigenvalues ---    0.21805   0.21934   0.31281   0.31869   0.33104
     Eigenvalues ---    0.33108   0.33110   0.33329   0.33417   0.34000
     Eigenvalues ---    0.37786   0.38781   0.42343   0.53942   0.54817
     Eigenvalues ---    0.556881000.000001000.000001000.000001000.00000
     Eigenvalues --- 1000.000001000.000001000.000001000.000001000.00000
     Eigenvalues --- 1000.000001000.000001000.000001000.000001000.00000
     Eigenvalues --- 1000.000001000.000001000.000001000.000001000.00000
     Eigenvalues --- 1000.000001000.000001000.000001000.000001000.00000
     Eigenvalues --- 1000.000001000.000001000.00000
 RFO step:  Lambda=-1.20072456D-03 EMin= 7.87205132D-03
 Quartic linear search produced a step of  0.13466.
 Iteration  1 RMS(Cart)=  0.04855058 RMS(Int)=  0.00122447
 Iteration  2 RMS(Cart)=  0.00142172 RMS(Int)=  0.00071221
 Iteration  3 RMS(Cart)=  0.00000078 RMS(Int)=  0.00071221
 Variable       Old X    -DE/DX   Delta X   Delta X   Delta X     New X
                                 (Linear)    (Quad)   (Total)
    R1        2.51628   0.00221   0.00017   0.00540   0.00585   2.52213
    R2        2.77876   0.00257   0.00023   0.00626   0.00669   2.78546
    R3        2.03855  -0.00101   0.00044  -0.00112  -0.00067   2.03787
    R4        2.76763  -0.00410  -0.00092  -0.01294  -0.01371   2.75392
    R5        2.03869  -0.00094   0.00046  -0.00085  -0.00039   2.03831
    R6        2.60659   0.00274   0.00298   0.00634   0.00923   2.61582
    R7        2.03539  -0.00080   0.00026  -0.00056  -0.00030   2.03509
    R8        2.59855  -0.00327   0.00223  -0.00592  -0.00372   2.59483
    R9        2.03536  -0.00084   0.00026  -0.00068  -0.00042   2.03494
   R10        2.65762   0.00523  -0.00580   0.01544   0.00937   2.66700
   R11        2.04012  -0.00102   0.00069  -0.00125  -0.00056   2.03957
   R12        2.66342   0.00816  -0.00523   0.02499   0.01951   2.68293
   R13        2.04014  -0.00102   0.00069  -0.00127  -0.00058   2.03956
   R14        2.03289   0.00034  -0.00031   0.00424   0.00393   2.03681
    A1        2.23864   0.00048   0.00084   0.00485   0.00464   2.24328
    A2        2.04364  -0.00048   0.00027  -0.00299  -0.00221   2.04143
    A3        2.00078   0.00000  -0.00113  -0.00174  -0.00236   1.99843
    A4        2.24032   0.00103   0.00100   0.00798   0.00786   2.24819
    A5        2.04252  -0.00085   0.00017  -0.00522  -0.00450   2.03801
    A6        2.00017  -0.00017  -0.00119  -0.00264  -0.00328   1.99688
    A7        2.21813   0.00081   0.00076   0.00797   0.00719   2.22532
    A8        2.01741  -0.00022  -0.00031  -0.00288  -0.00245   2.01495
    A9        2.04479  -0.00057  -0.00067  -0.00440  -0.00433   2.04046
   A10        2.21789   0.00086   0.00074   0.00750   0.00679   2.22468
   A11        2.01768  -0.00031  -0.00027  -0.00302  -0.00262   2.01506
   A12        2.04535  -0.00052  -0.00062  -0.00342  -0.00338   2.04197
   A13        2.25375  -0.00112   0.00303  -0.00019   0.00083   2.25458
   A14        2.02068   0.00014  -0.00212  -0.00260  -0.00373   2.01695
   A15        2.00870   0.00098  -0.00092   0.00274   0.00282   2.01151
   A16        2.25296  -0.00115   0.00293  -0.00130  -0.00031   2.25264
   A17        2.02117   0.00014  -0.00208  -0.00212  -0.00326   2.01790
   A18        2.00890   0.00100  -0.00087   0.00329   0.00335   2.01226
   A19        2.22558  -0.00038   0.00499   0.00336   0.00519   2.23076
   A20        2.02591   0.00023  -0.00088   0.00048  -0.00029   2.02562
   A21        2.02589   0.00021  -0.00089   0.00042  -0.00036   2.02554
    D1        0.00795   0.00010   0.00079   0.00777   0.00857   0.01652
    D2        3.12796   0.00023  -0.00118   0.01514   0.01393  -3.14130
    D3       -3.11577  -0.00002   0.00244  -0.00104   0.00145  -3.11432
    D4        0.00423   0.00010   0.00046   0.00633   0.00681   0.01104
    D5       -0.28839   0.00093   0.01317   0.06011   0.07338  -0.21501
    D6        2.92815   0.00053   0.01605   0.04295   0.05904   2.98718
    D7        2.83570   0.00105   0.01156   0.06873   0.08036   2.91606
    D8       -0.23095   0.00065   0.01444   0.05157   0.06601  -0.16494
    D9        0.27899  -0.00119  -0.01409  -0.06892  -0.08306   0.19593
   D10       -2.94665  -0.00090  -0.01788  -0.05923  -0.07709  -3.02374
   D11       -2.84145  -0.00130  -0.01215  -0.07611  -0.08830  -2.92975
   D12        0.21609  -0.00101  -0.01595  -0.06642  -0.08233   0.13377
   D13       -0.15554   0.00067  -0.00677   0.02603   0.01940  -0.13614
   D14        2.99908   0.00080  -0.00451   0.03039   0.02600   3.02508
   D15        3.07125   0.00036  -0.00293   0.01613   0.01326   3.08451
   D16       -0.05731   0.00049  -0.00068   0.02049   0.01986  -0.03745
   D17        0.15352  -0.00081   0.00651  -0.02888  -0.02244   0.13108
   D18       -3.00818  -0.00098   0.00358  -0.03720  -0.03365  -3.04183
   D19       -3.06406  -0.00040   0.00360  -0.01146  -0.00786  -3.07192
   D20        0.05743  -0.00057   0.00067  -0.01977  -0.01907   0.03836
   D21       -0.15984   0.00070   0.03818   0.05665   0.09496  -0.06487
   D22        3.10271   0.00008   0.01813   0.01239   0.03058   3.13329
   D23        2.96880   0.00056   0.03594   0.05228   0.08834   3.05714
   D24       -0.05185  -0.00005   0.01590   0.00803   0.02396  -0.02789
   D25        0.16259  -0.00072  -0.03787  -0.05358  -0.09150   0.07110
   D26       -3.09995  -0.00011  -0.01783  -0.00932  -0.02711  -3.12706
   D27       -2.95901  -0.00054  -0.03496  -0.04526  -0.08025  -3.03927
   D28        0.06163   0.00007  -0.01492  -0.00101  -0.01587   0.04576
         Item               Value     Threshold  Converged?
 Maximum Force            0.008157     0.000450     NO 
 RMS     Force            0.001633     0.000300     NO 
 Maximum Displacement     0.160665     0.001800     NO 
 RMS     Displacement     0.048396     0.001200     NO 
 Predicted change in Energy=-7.177206D-04
 GradGradGradGradGradGradGradGradGradGradGradGradGradGradGradGradGradGrad

                          Input orientation:                          
 ---------------------------------------------------------------------
 Center     Atomic      Atomic             Coordinates (Angstroms)
 Number     Number       Type             X           Y           Z
 ---------------------------------------------------------------------
      1          6           0       -2.909849   -0.272585   -0.127680
      2          6           0       -1.575247   -0.266764   -0.137997
      3          6           0       -0.664926    0.848242    0.089680
      4          6           0       -3.831252    0.855359    0.099104
      5          6           0       -0.977817    2.105685    0.576547
      6          6           0       -3.520334    2.104980    0.575812
      7          6           0       -2.244613    2.673547    0.830653
      8          1           0       -3.396046   -1.220174   -0.296872
      9          1           0       -1.086746   -1.209970   -0.325511
     10          1           0        0.377224    0.637033   -0.080824
     11          1           0       -4.871677    0.647220   -0.084697
     12          1           0       -0.135770    2.750884    0.775412
     13          1           0       -4.360683    2.757127    0.758521
     14          1           0       -2.243481    3.678345    1.220665
 ---------------------------------------------------------------------
                    Distance matrix (angstroms):
                    1          2          3          4          5
     1  C    0.000000
     2  C    1.334654   0.000000
     3  C    2.518566   1.457312   0.000000
     4  C    1.474000   2.530797   3.166348   0.000000
     5  C    3.144018   2.548727   1.384234   3.151723   0.000000
     6  C    2.553510   3.149294   3.157383   1.373125   2.542517
     7  C    3.168697   3.167296   2.525112   2.521586   1.411315
     8  H    1.078396   2.061441   3.447721   2.157322   4.203811
     9  H    2.059498   1.078626   2.141624   3.460953   3.437898
    10  H    3.410931   2.152269   1.076921   4.217975   2.103619
    11  H    2.167179   3.421207   4.215160   1.076842   4.210286
    12  H    4.201482   3.465921   2.090522   4.207968   1.079293
    13  H    3.474108   4.207887   4.213052   2.081309   3.449822
    14  H    4.227521   4.225681   3.432265   3.427559   2.118974
                    6          7          8          9         10
     6  C    0.000000
     7  C    1.419745   0.000000
     8  H    3.440011   4.214045   0.000000
     9  H    4.209944   4.214152   2.309500   0.000000
    10  H    4.216278   3.442704   4.211112   2.369494   0.000000
    11  H    2.094627   3.441705   2.389491   4.222896   5.248913
    12  H    3.451421   2.110984   5.248666   4.219568   2.337663
    13  H    1.079289   2.118948   4.226500   5.256581   5.258047
    14  H    2.126421   1.077835   5.256121   5.255884   4.220373
                   11         12         13         14
    11  H    0.000000
    12  H    5.253000   0.000000
    13  H    2.328914   4.224951   0.000000
    14  H    4.218898   2.345396   2.354732   0.000000
 Stoichiometry    C7H7(2)
 Framework group  C1[X(C7H7)]
 Deg. of freedom    36
 Full point group                 C1      NOp   1
 Largest Abelian subgroup         C1      NOp   1
 Largest concise Abelian subgroup C1      NOp   1
                         Standard orientation:                         
 ---------------------------------------------------------------------
 Center     Atomic      Atomic             Coordinates (Angstroms)
 Number     Number       Type             X           Y           Z
 ---------------------------------------------------------------------
      1          6           0       -1.216088   -1.069106   -0.047681
      2          6           0       -1.606650    0.207082   -0.037423
      3          6           0       -0.793210    1.410297    0.082365
      4          6           0        0.148093   -1.612896    0.078714
      5          6           0        0.585127    1.507374   -0.000499
      6          6           0        1.332729   -0.922744    0.002537
      7          6           0        1.548822    0.478613   -0.069420
      8          1           0       -1.984966   -1.814811   -0.172931
      9          1           0       -2.663774    0.392500   -0.144861
     10          1           0       -1.341745    2.331907    0.179851
     11          1           0        0.211564   -2.681892    0.191890
     12          1           0        0.982456    2.510857    0.004534
     13          1           0        2.226963   -1.526584    0.026758
     14          1           0        2.576569    0.796299   -0.136808
 ---------------------------------------------------------------------
 Rotational constants (GHZ):      3.7300056      3.6946619      1.8615659
 Standard basis: 6-311++G(d,p) (5D, 7F)
 There are   203 symmetry adapted basis functions of A   symmetry.
 Integral buffers will be    262144 words long.
 Raffenetti 2 integral format.
 Two-electron integral symmetry is turned on.
   203 basis functions,   315 primitive gaussians,   210 cartesian basis functions
    25 alpha electrons       24 beta electrons
       nuclear repulsion energy       257.9459363158 Hartrees.
 NAtoms=   14 NActive=   14 NUniq=   14 SFac= 7.50D-01 NAtFMM=   80 NAOKFM=F Big=F
 One-electron integrals computed using PRISM.
 NBasis=   203 RedAO= T  NBF=   203
 NBsUse=   203 1.00D-06 NBFU=   203
 Initial guess read from the read-write file.
 B after Tr=     0.000000    0.000000    0.000000
         Rot=    1.000000    0.000000    0.000000    0.000000 Ang=   0.00 deg.
 Initial guess orbital symmetries:
 Alpha Orbitals:
       Occupied  (A) (A) (A) (A) (A) (A) (A) (A) (A) (A) (A) (A)
                 (A) (A) (A) (A) (A) (A) (A) (A) (A) (A) (A) (A)
                 (A)
       Virtual   (A) (A) (A) (A) (A) (A) (A) (A) (A) (A) (A) (A)
                 (A) (A) (A) (A) (A) (A) (A) (A) (A) (A) (A) (A)
                 (A) (A) (A) (A) (A) (A) (A) (A) (A) (A) (A) (A)
                 (A) (A) (A) (A) (A) (A) (A) (A) (A) (A) (A) (A)
                 (A) (A) (A) (A) (A) (A) (A) (A) (A) (A) (A) (A)
                 (A) (A) (A) (A) (A) (A) (A) (A) (A) (A) (A) (A)
                 (A) (A) (A) (A) (A) (A) (A) (A) (A) (A) (A) (A)
                 (A) (A) (A) (A) (A) (A) (A) (A) (A) (A) (A) (A)
                 (A) (A) (A) (A) (A) (A) (A) (A) (A) (A) (A) (A)
                 (A) (A) (A) (A) (A) (A) (A) (A) (A) (A) (A) (A)
                 (A) (A) (A) (A) (A) (A) (A) (A) (A) (A) (A) (A)
                 (A) (A) (A) (A) (A) (A) (A) (A) (A) (A) (A) (A)
                 (A) (A) (A) (A) (A) (A) (A) (A) (A) (A) (A) (A)
                 (A) (A) (A) (A) (A) (A) (A) (A) (A) (A) (A) (A)
                 (A) (A) (A) (A) (A) (A) (A) (A) (A) (A)
 Beta  Orbitals:
       Occupied  (A) (A) (A) (A) (A) (A) (A) (A) (A) (A) (A) (A)
                 (A) (A) (A) (A) (A) (A) (A) (A) (A) (A) (A) (A)
       Virtual   (A) (A) (A) (A) (A) (A) (A) (A) (A) (A) (A) (A)
                 (A) (A) (A) (A) (A) (A) (A) (A) (A) (A) (A) (A)
                 (A) (A) (A) (A) (A) (A) (A) (A) (A) (A) (A) (A)
                 (A) (A) (A) (A) (A) (A) (A) (A) (A) (A) (A) (A)
                 (A) (A) (A) (A) (A) (A) (A) (A) (A) (A) (A) (A)
                 (A) (A) (A) (A) (A) (A) (A) (A) (A) (A) (A) (A)
                 (A) (A) (A) (A) (A) (A) (A) (A) (A) (A) (A) (A)
                 (A) (A) (A) (A) (A) (A) (A) (A) (A) (A) (A) (A)
                 (A) (A) (A) (A) (A) (A) (A) (A) (A) (A) (A) (A)
                 (A) (A) (A) (A) (A) (A) (A) (A) (A) (A) (A) (A)
                 (A) (A) (A) (A) (A) (A) (A) (A) (A) (A) (A) (A)
                 (A) (A) (A) (A) (A) (A) (A) (A) (A) (A) (A) (A)
                 (A) (A) (A) (A) (A) (A) (A) (A) (A) (A) (A) (A)
                 (A) (A) (A) (A) (A) (A) (A) (A) (A) (A) (A) (A)
                 (A) (A) (A) (A) (A) (A) (A) (A) (A) (A) (A)
 Initial guess <Sx>= 0.0000 <Sy>= 0.0000 <Sz>= 0.5000 <S**2>= 1.1822 S= 0.6968
 Harris functional with IExCor=  205 diagonalized for initial guess.
 ExpMin= 3.60D-02 ExpMax= 4.56D+03 ExpMxC= 6.82D+02 IAcc=3 IRadAn=         0 AccDes= 0.00D+00
 HarFok:  IExCor=  205 AccDes= 0.00D+00 IRadAn=         0 IDoV= 1
 ScaDFX=  1.000000  1.000000  1.000000  1.000000
 FoFCou: FMM=F IPFlag=           0 FMFlag=      100000 FMFlg1=           0
         NFxFlg=           0 DoJE=T BraDBF=F KetDBF=T FulRan=T
         Omega=  0.000000  0.000000  1.000000  0.000000  0.000000 ICntrl=     500 IOpCl=  0
         NMat0=    1 NMatS0=    1 NMatT0=    0 NMatD0=    1 NMtDS0=    0 NMtDT0=    0
         I1Cent=           4 NGrid=           0.
 Petite list used in FoFCou.
 Requested convergence on RMS density matrix=1.00D-08 within 128 cycles.
 Requested convergence on MAX density matrix=1.00D-06.
 Requested convergence on             energy=1.00D-06.
 No special actions if energy rises.
 Initial convergence to 1.0D-05 achieved.  Increase integral accuracy.
 SCF Done:  E(UHF) =  -269.162105942     A.U. after   32 cycles
             Convg  =    0.2587D-08             -V/T =  2.0004
 <Sx>= 0.0000 <Sy>= 0.0000 <Sz>= 0.5000 <S**2>= 1.2092 S= 0.7080
 <L.S>= 0.000000000000E+00
 Annihilation of the first spin contaminant:
 S**2 before annihilation     1.2092,   after     0.9026
 Calling FoFJK, ICntrl=      2127 FMM=F ISym2X=0 I1Cent= 0 IOpClX= 1 NMat=1 NMatS=1 NMatT=0.
 ***** Axes restored to original set *****
 -------------------------------------------------------------------
 Center     Atomic                   Forces (Hartrees/Bohr)
 Number     Number              X              Y              Z
 -------------------------------------------------------------------
      1        6          -0.002457950   -0.004271467   -0.001191604
      2        6           0.007095831    0.003591312   -0.000000241
      3        6          -0.002214804   -0.006374012    0.000129857
      4        6          -0.000430163    0.008146830    0.004562296
      5        6          -0.000926967    0.004137759   -0.000421295
      6        6          -0.004717940   -0.005546434   -0.004254317
      7        6           0.003702725    0.000552315    0.002045007
      8        1           0.000618825    0.000844054   -0.000491346
      9        1          -0.000808986    0.000615348   -0.000781940
     10        1          -0.000490911    0.000094561    0.001203435
     11        1           0.000602312   -0.000195186    0.000957102
     12        1          -0.000963765   -0.000231100   -0.000692826
     13        1           0.001073196   -0.000130247   -0.000690575
     14        1          -0.000081403   -0.001233732   -0.000373552
 -------------------------------------------------------------------
 Cartesian Forces:  Max     0.008146830 RMS     0.002845735

 GradGradGradGradGradGradGradGradGradGradGradGradGradGradGradGradGradGrad
 Berny optimization.
 Using GEDIIS/GDIIS optimizer.
 Internal  Forces:  Max     0.006350639 RMS     0.001347997
 Search for a local minimum.
 Step number   6 out of a maximum of   73
 All quantities printed in internal units (Hartrees-Bohrs-Radians)
 Mixed Optimization -- RFO/linear search
 Update second derivatives using D2CorX and points    5    6
 DE= -9.94D-04 DEPred=-7.18D-04 R= 1.39D+00
 SS=  1.41D+00  RLast= 2.94D-01 DXNew= 2.4000D+00 8.8192D-01
 Trust test= 1.39D+00 RLast= 2.94D-01 DXMaxT set to 1.43D+00
 Use linear search instead of GDIIS.
     Eigenvalues ---    0.00441   0.01409   0.01725   0.01961   0.02040
     Eigenvalues ---    0.02108   0.02180   0.02192   0.02220   0.02462
     Eigenvalues ---    0.02609   0.15867   0.15972   0.15982   0.15993
     Eigenvalues ---    0.15997   0.16042   0.16071   0.21568   0.21805
     Eigenvalues ---    0.21850   0.21966   0.31417   0.31812   0.33103
     Eigenvalues ---    0.33105   0.33112   0.33329   0.33417   0.35518
     Eigenvalues ---    0.38062   0.40397   0.41218   0.52732   0.55526
     Eigenvalues ---    0.597321000.000001000.000001000.000001000.00000
     Eigenvalues --- 1000.000001000.000001000.000001000.000001000.00000
     Eigenvalues --- 1000.000001000.000001000.000001000.000001000.00000
     Eigenvalues --- 1000.000001000.000001000.000001000.000001000.00000
     Eigenvalues --- 1000.000001000.000001000.000001000.000001000.00000
     Eigenvalues --- 1000.000001000.000001000.00000
 RFO step:  Lambda=-1.06708783D-03 EMin= 4.40628201D-03
 Quartic linear search produced a step of  0.95895.
 Iteration  1 RMS(Cart)=  0.08025427 RMS(Int)=  0.00313487
 Iteration  2 RMS(Cart)=  0.00394639 RMS(Int)=  0.00146774
 Iteration  3 RMS(Cart)=  0.00000551 RMS(Int)=  0.00146773
 Iteration  4 RMS(Cart)=  0.00000000 RMS(Int)=  0.00146773
 Variable       Old X    -DE/DX   Delta X   Delta X   Delta X     New X
                                 (Linear)    (Quad)   (Total)
    R1        2.52213   0.00337   0.00561   0.01273   0.01817   2.54030
    R2        2.78546   0.00337   0.00642   0.01529   0.02169   2.80714
    R3        2.03787  -0.00094  -0.00065  -0.00248  -0.00313   2.03474
    R4        2.75392  -0.00446  -0.01315  -0.02045  -0.03379   2.72013
    R5        2.03831  -0.00077  -0.00037  -0.00152  -0.00189   2.03642
    R6        2.61582   0.00225   0.00885   0.00966   0.01847   2.63429
    R7        2.03509  -0.00068  -0.00029  -0.00140  -0.00168   2.03340
    R8        2.59483  -0.00635  -0.00357  -0.01847  -0.02191   2.57292
    R9        2.03494  -0.00071  -0.00041  -0.00152  -0.00192   2.03301
   R10        2.66700  -0.00191   0.00899  -0.01894  -0.00984   2.65716
   R11        2.03957  -0.00102  -0.00053  -0.00289  -0.00342   2.03615
   R12        2.68293   0.00219   0.01871   0.00249   0.02140   2.70433
   R13        2.03956  -0.00103  -0.00055  -0.00296  -0.00351   2.03605
   R14        2.03681  -0.00129   0.00377  -0.00510  -0.00134   2.03548
    A1        2.24328  -0.00093   0.00445  -0.00393  -0.00323   2.24005
    A2        2.04143   0.00023  -0.00212   0.00085   0.00056   2.04200
    A3        1.99843   0.00070  -0.00226   0.00313   0.00271   2.00113
    A4        2.24819  -0.00018   0.00754   0.00328   0.00692   2.25511
    A5        2.03801  -0.00044  -0.00432  -0.00614  -0.00852   2.02950
    A6        1.99688   0.00062  -0.00315   0.00289   0.00167   1.99855
    A7        2.22532   0.00042   0.00689   0.00700   0.01002   2.23534
    A8        2.01495   0.00010  -0.00235   0.00062   0.00001   2.01496
    A9        2.04046  -0.00050  -0.00415  -0.00602  -0.00846   2.03200
   A10        2.22468   0.00070   0.00651   0.00692   0.00976   2.23444
   A11        2.01506  -0.00040  -0.00251  -0.00365  -0.00480   2.01027
   A12        2.04197  -0.00028  -0.00324  -0.00172  -0.00359   2.03838
   A13        2.25458  -0.00016   0.00079   0.00232  -0.00030   2.25427
   A14        2.01695   0.00031  -0.00358   0.00166  -0.00023   2.01671
   A15        2.01151  -0.00015   0.00270  -0.00375   0.00064   2.01215
   A16        2.25264   0.00009  -0.00030   0.00216  -0.00127   2.25137
   A17        2.01790   0.00033  -0.00313   0.00350   0.00191   2.01981
   A18        2.01226  -0.00042   0.00322  -0.00527  -0.00052   2.01174
   A19        2.23076   0.00030   0.00497   0.00399   0.00439   2.23516
   A20        2.02562  -0.00007  -0.00028  -0.00060  -0.00073   2.02489
   A21        2.02554  -0.00023  -0.00034  -0.00245  -0.00266   2.02287
    D1        0.01652   0.00004   0.00822   0.00792   0.01626   0.03279
    D2       -3.14130  -0.00002   0.01336   0.01029   0.02380  -3.11749
    D3       -3.11432   0.00008   0.00139   0.00134   0.00287  -3.11146
    D4        0.01104   0.00002   0.00653   0.00372   0.01041   0.02145
    D5       -0.21501   0.00088   0.07037   0.07751   0.14804  -0.06697
    D6        2.98718   0.00045   0.05661   0.04604   0.10279   3.08998
    D7        2.91606   0.00085   0.07706   0.08394   0.16116   3.07722
    D8       -0.16494   0.00041   0.06330   0.05247   0.11592  -0.04902
    D9        0.19593  -0.00109  -0.07965  -0.08552  -0.16501   0.03092
   D10       -3.02374  -0.00071  -0.07392  -0.06041  -0.13404   3.12540
   D11       -2.92975  -0.00102  -0.08468  -0.08778  -0.17236  -3.10211
   D12        0.13377  -0.00064  -0.07895  -0.06267  -0.14139  -0.00763
   D13       -0.13614   0.00073   0.01860   0.05726   0.07615  -0.05999
   D14        3.02508   0.00067   0.02493   0.04219   0.06736   3.09244
   D15        3.08451   0.00033   0.01271   0.03156   0.04459   3.12910
   D16       -0.03745   0.00027   0.01904   0.01650   0.03580  -0.00165
   D17        0.13108  -0.00086  -0.02152  -0.06240  -0.08384   0.04724
   D18       -3.04183  -0.00077  -0.03227  -0.04650  -0.07863  -3.12046
   D19       -3.07192  -0.00043  -0.00754  -0.03056  -0.03800  -3.10992
   D20        0.03836  -0.00033  -0.01829  -0.01466  -0.03279   0.00557
   D21       -0.06487  -0.00023   0.09107   0.01267   0.10399   0.03911
   D22        3.13329  -0.00008   0.02933  -0.00828   0.02121  -3.12869
   D23        3.05714  -0.00017   0.08472   0.02775   0.11275  -3.11330
   D24       -0.02789  -0.00002   0.02298   0.00680   0.02997   0.00209
   D25        0.07110   0.00023  -0.08774  -0.00808  -0.09563  -0.02453
   D26       -3.12706   0.00009  -0.02600   0.01293  -0.01288  -3.13994
   D27       -3.03927   0.00013  -0.07696  -0.02406  -0.10085  -3.14012
   D28        0.04576  -0.00001  -0.01522  -0.00306  -0.01810   0.02765
         Item               Value     Threshold  Converged?
 Maximum Force            0.006351     0.000450     NO 
 RMS     Force            0.001348     0.000300     NO 
 Maximum Displacement     0.290143     0.001800     NO 
 RMS     Displacement     0.080021     0.001200     NO 
 Predicted change in Energy=-9.318664D-04
 GradGradGradGradGradGradGradGradGradGradGradGradGradGradGradGradGradGrad

                          Input orientation:                          
 ---------------------------------------------------------------------
 Center     Atomic      Atomic             Coordinates (Angstroms)
 Number     Number       Type             X           Y           Z
 ---------------------------------------------------------------------
      1          6           0       -2.909112   -0.270335   -0.150411
      2          6           0       -1.565048   -0.255132   -0.168108
      3          6           0       -0.663029    0.821658    0.146300
      4          6           0       -3.839279    0.843822    0.165947
      5          6           0       -0.978359    2.108203    0.580602
      6          6           0       -3.529117    2.104490    0.576164
      7          6           0       -2.241036    2.700679    0.758815
      8          1           0       -3.390695   -1.201280   -0.396958
      9          1           0       -1.081104   -1.176067   -0.449102
     10          1           0        0.383898    0.584237    0.072713
     11          1           0       -4.884611    0.609345    0.067463
     12          1           0       -0.136584    2.742904    0.803168
     13          1           0       -4.367556    2.752694    0.770346
     14          1           0       -2.239585    3.723709    1.095876
 ---------------------------------------------------------------------
                    Distance matrix (angstroms):
                    1          2          3          4          5
     1  C    0.000000
     2  C    1.344267   0.000000
     3  C    2.515030   1.439432   0.000000
     4  C    1.485475   2.547827   3.176388   0.000000
     5  C    3.149545   2.547572   1.394005   3.155228   0.000000
     6  C    2.559709   3.159007   3.169369   1.361530   2.550765
     7  C    3.178040   3.170641   2.529031   2.520672   1.406108
     8  H    1.076739   2.068951   3.439123   2.168071   4.210424
     9  H    2.061840   1.077627   2.126075   3.473581   3.443440
    10  H    3.409398   2.135632   1.076030   4.232175   2.106221
    11  H    2.173454   3.438359   4.227652   1.075824   4.215293
    12  H    4.204264   3.460073   2.097572   4.209812   1.077482
    13  H    3.480453   4.216843   4.223961   2.070789   3.455145
    14  H    4.237202   4.228928   3.436441   3.423089   2.113305
                    6          7          8          9         10
     6  C    0.000000
     7  C    1.431067   0.000000
     8  H    3.448804   4.228807   0.000000
     9  H    4.219715   4.222992   2.310317   0.000000
    10  H    4.228040   3.440980   4.201930   2.348870   0.000000
    11  H    2.081250   3.440949   2.392872   4.233344   5.268572
    12  H    3.459536   2.105344   5.252250   4.221212   2.337586
    13  H    1.077429   2.127187   4.236835   5.265262   5.269270
    14  H    2.134213   1.077128   5.273436   5.266578   4.217323
                   11         12         13         14
    11  H    0.000000
    12  H    5.257100   0.000000
    13  H    2.314160   4.231111   0.000000
    14  H    4.213438   2.338861   2.361588   0.000000
 Stoichiometry    C7H7(2)
 Framework group  C1[X(C7H7)]
 Deg. of freedom    36
 Full point group                 C1      NOp   1
 Largest Abelian subgroup         C1      NOp   1
 Largest concise Abelian subgroup C1      NOp   1
                         Standard orientation:                         
 ---------------------------------------------------------------------
 Center     Atomic      Atomic             Coordinates (Angstroms)
 Number     Number       Type             X           Y           Z
 ---------------------------------------------------------------------
      1          6           0        0.829885   -1.395741    0.016943
      2          6           0        1.596561   -0.291705   -0.002199
      3          6           0        1.199358    1.091708   -0.021257
      4          6           0       -0.652319   -1.489122   -0.014488
      5          6           0       -0.091984    1.615859    0.009597
      6          6           0       -1.557293   -0.472014    0.002142
      7          6           0       -1.325024    0.940078    0.001110
      8          1           0        1.338918   -2.343666    0.058055
      9          1           0        2.662368   -0.450732    0.004684
     10          1           0        2.005593    1.804324   -0.019013
     11          1           0       -1.047480   -2.489408   -0.040436
     12          1           0       -0.156594    2.691115    0.034441
     13          1           0       -2.593336   -0.767623   -0.006981
     14          1           0       -2.204575    1.561611    0.018163
 ---------------------------------------------------------------------
 Rotational constants (GHZ):      3.7281529      3.6802263      1.8522827
 Standard basis: 6-311++G(d,p) (5D, 7F)
 There are   203 symmetry adapted basis functions of A   symmetry.
 Integral buffers will be    262144 words long.
 Raffenetti 2 integral format.
 Two-electron integral symmetry is turned on.
   203 basis functions,   315 primitive gaussians,   210 cartesian basis functions
    25 alpha electrons       24 beta electrons
       nuclear repulsion energy       257.6854519010 Hartrees.
 NAtoms=   14 NActive=   14 NUniq=   14 SFac= 7.50D-01 NAtFMM=   80 NAOKFM=F Big=F
 One-electron integrals computed using PRISM.
 NBasis=   203 RedAO= T  NBF=   203
 NBsUse=   203 1.00D-06 NBFU=   203
 Initial guess read from the read-write file.
 B after Tr=     0.000000    0.000000    0.000000
         Rot=    1.000000    0.000000    0.000000    0.000000 Ang=   0.00 deg.
 Initial guess orbital symmetries:
 Alpha Orbitals:
       Occupied  (A) (A) (A) (A) (A) (A) (A) (A) (A) (A) (A) (A)
                 (A) (A) (A) (A) (A) (A) (A) (A) (A) (A) (A) (A)
                 (A)
       Virtual   (A) (A) (A) (A) (A) (A) (A) (A) (A) (A) (A) (A)
                 (A) (A) (A) (A) (A) (A) (A) (A) (A) (A) (A) (A)
                 (A) (A) (A) (A) (A) (A) (A) (A) (A) (A) (A) (A)
                 (A) (A) (A) (A) (A) (A) (A) (A) (A) (A) (A) (A)
                 (A) (A) (A) (A) (A) (A) (A) (A) (A) (A) (A) (A)
                 (A) (A) (A) (A) (A) (A) (A) (A) (A) (A) (A) (A)
                 (A) (A) (A) (A) (A) (A) (A) (A) (A) (A) (A) (A)
                 (A) (A) (A) (A) (A) (A) (A) (A) (A) (A) (A) (A)
                 (A) (A) (A) (A) (A) (A) (A) (A) (A) (A) (A) (A)
                 (A) (A) (A) (A) (A) (A) (A) (A) (A) (A) (A) (A)
                 (A) (A) (A) (A) (A) (A) (A) (A) (A) (A) (A) (A)
                 (A) (A) (A) (A) (A) (A) (A) (A) (A) (A) (A) (A)
                 (A) (A) (A) (A) (A) (A) (A) (A) (A) (A) (A) (A)
                 (A) (A) (A) (A) (A) (A) (A) (A) (A) (A) (A) (A)
                 (A) (A) (A) (A) (A) (A) (A) (A) (A) (A)
 Beta  Orbitals:
       Occupied  (A) (A) (A) (A) (A) (A) (A) (A) (A) (A) (A) (A)
                 (A) (A) (A) (A) (A) (A) (A) (A) (A) (A) (A) (A)
       Virtual   (A) (A) (A) (A) (A) (A) (A) (A) (A) (A) (A) (A)
                 (A) (A) (A) (A) (A) (A) (A) (A) (A) (A) (A) (A)
                 (A) (A) (A) (A) (A) (A) (A) (A) (A) (A) (A) (A)
                 (A) (A) (A) (A) (A) (A) (A) (A) (A) (A) (A) (A)
                 (A) (A) (A) (A) (A) (A) (A) (A) (A) (A) (A) (A)
                 (A) (A) (A) (A) (A) (A) (A) (A) (A) (A) (A) (A)
                 (A) (A) (A) (A) (A) (A) (A) (A) (A) (A) (A) (A)
                 (A) (A) (A) (A) (A) (A) (A) (A) (A) (A) (A) (A)
                 (A) (A) (A) (A) (A) (A) (A) (A) (A) (A) (A) (A)
                 (A) (A) (A) (A) (A) (A) (A) (A) (A) (A) (A) (A)
                 (A) (A) (A) (A) (A) (A) (A) (A) (A) (A) (A) (A)
                 (A) (A) (A) (A) (A) (A) (A) (A) (A) (A) (A) (A)
                 (A) (A) (A) (A) (A) (A) (A) (A) (A) (A) (A) (A)
                 (A) (A) (A) (A) (A) (A) (A) (A) (A) (A) (A) (A)
                 (A) (A) (A) (A) (A) (A) (A) (A) (A) (A) (A)
 Initial guess <Sx>= 0.0000 <Sy>= 0.0000 <Sz>= 0.5000 <S**2>= 1.6065 S= 0.8625
 Harris functional with IExCor=  205 diagonalized for initial guess.
 ExpMin= 3.60D-02 ExpMax= 4.56D+03 ExpMxC= 6.82D+02 IAcc=3 IRadAn=         0 AccDes= 0.00D+00
 HarFok:  IExCor=  205 AccDes= 0.00D+00 IRadAn=         0 IDoV= 1
 ScaDFX=  1.000000  1.000000  1.000000  1.000000
 FoFCou: FMM=F IPFlag=           0 FMFlag=      100000 FMFlg1=           0
         NFxFlg=           0 DoJE=T BraDBF=F KetDBF=T FulRan=T
         Omega=  0.000000  0.000000  1.000000  0.000000  0.000000 ICntrl=     500 IOpCl=  0
         NMat0=    1 NMatS0=    1 NMatT0=    0 NMatD0=    1 NMtDS0=    0 NMtDT0=    0
         I1Cent=           4 NGrid=           0.
 Petite list used in FoFCou.
 Requested convergence on RMS density matrix=1.00D-08 within 128 cycles.
 Requested convergence on MAX density matrix=1.00D-06.
 Requested convergence on             energy=1.00D-06.
 No special actions if energy rises.
 Initial convergence to 1.0D-05 achieved.  Increase integral accuracy.
 SCF Done:  E(UHF) =  -269.163105855     A.U. after   31 cycles
             Convg  =    0.7699D-08             -V/T =  2.0004
 <Sx>= 0.0000 <Sy>= 0.0000 <Sz>= 0.5000 <S**2>= 1.2447 S= 0.7226
 <L.S>= 0.000000000000E+00
 Annihilation of the first spin contaminant:
 S**2 before annihilation     1.2447,   after     0.9433
 Calling FoFJK, ICntrl=      2127 FMM=F ISym2X=0 I1Cent= 0 IOpClX= 1 NMat=1 NMatS=1 NMatT=0.
 ***** Axes restored to original set *****
 -------------------------------------------------------------------
 Center     Atomic                   Forces (Hartrees/Bohr)
 Number     Number              X              Y              Z
 -------------------------------------------------------------------
      1        6          -0.004792792   -0.000046489   -0.000768944
      2        6           0.003979160    0.000815090   -0.000289373
      3        6           0.000271808   -0.001084749    0.001527260
      4        6           0.001670631    0.003838496    0.002973210
      5        6          -0.003453785    0.001838327   -0.001001137
      6        6           0.000146811   -0.004086278   -0.004294592
      7        6           0.002334116   -0.001132347    0.002941368
      8        1          -0.000004856    0.000392629   -0.000634093
      9        1          -0.000370060   -0.000418314    0.000469365
     10        1           0.000155647    0.000386269   -0.000255238
     11        1          -0.000036890   -0.000716949    0.000251870
     12        1           0.000097460    0.000305590   -0.000704856
     13        1           0.000286864    0.000555619    0.000147342
     14        1          -0.000284115   -0.000646893   -0.000362181
 -------------------------------------------------------------------
 Cartesian Forces:  Max     0.004792792 RMS     0.001828986

 GradGradGradGradGradGradGradGradGradGradGradGradGradGradGradGradGradGrad
 Berny optimization.
 Using GEDIIS/GDIIS optimizer.
 Internal  Forces:  Max     0.004277570 RMS     0.000928361
 Search for a local minimum.
 Step number   7 out of a maximum of   73
 All quantities printed in internal units (Hartrees-Bohrs-Radians)
 Mixed Optimization -- En-DIIS/RFO-DIIS
 Update second derivatives using D2CorX and points    6    7
 DE= -1.00D-03 DEPred=-9.32D-04 R= 1.07D+00
 SS=  1.41D+00  RLast= 4.96D-01 DXNew= 2.4000D+00 1.4867D+00
 Trust test= 1.07D+00 RLast= 4.96D-01 DXMaxT set to 1.49D+00
 Use linear search instead of GDIIS.
     Eigenvalues ---    0.00498   0.01356   0.01779   0.01965   0.02034
     Eigenvalues ---    0.02049   0.02167   0.02173   0.02214   0.02395
     Eigenvalues ---    0.02625   0.15882   0.15957   0.15996   0.15997
     Eigenvalues ---    0.16001   0.16040   0.16077   0.21546   0.21890
     Eigenvalues ---    0.21972   0.22076   0.31136   0.31784   0.33104
     Eigenvalues ---    0.33106   0.33117   0.33337   0.33417   0.36128
     Eigenvalues ---    0.38503   0.40436   0.40887   0.51726   0.55841
     Eigenvalues ---    0.577851000.000001000.000001000.000001000.00000
     Eigenvalues --- 1000.000001000.000001000.000001000.000001000.00000
     Eigenvalues --- 1000.000001000.000001000.000001000.000001000.00000
     Eigenvalues --- 1000.000001000.000001000.000001000.000001000.00000
     Eigenvalues --- 1000.000001000.000001000.000001000.000001000.00000
     Eigenvalues --- 1000.000001000.000001000.00000
 RFO step:  Lambda=-3.14467406D-04 EMin= 4.98247358D-03
 Quartic linear search produced a step of  0.10232.
 Iteration  1 RMS(Cart)=  0.01599002 RMS(Int)=  0.00023055
 Iteration  2 RMS(Cart)=  0.00021602 RMS(Int)=  0.00017090
 Iteration  3 RMS(Cart)=  0.00000002 RMS(Int)=  0.00017090
 Variable       Old X    -DE/DX   Delta X   Delta X   Delta X     New X
                                 (Linear)    (Quad)   (Total)
    R1        2.54030   0.00359   0.00186   0.00779   0.00960   2.54990
    R2        2.80714  -0.00103   0.00222  -0.00225  -0.00007   2.80707
    R3        2.03474  -0.00019  -0.00032  -0.00107  -0.00139   2.03335
    R4        2.72013  -0.00002  -0.00346  -0.00149  -0.00497   2.71516
    R5        2.03642   0.00007  -0.00019  -0.00019  -0.00039   2.03603
    R6        2.63429   0.00035   0.00189   0.00150   0.00341   2.63770
    R7        2.03340   0.00008  -0.00017  -0.00005  -0.00022   2.03318
    R8        2.57292  -0.00428  -0.00224  -0.00917  -0.01141   2.56151
    R9        2.03301   0.00017  -0.00020   0.00021   0.00001   2.03303
   R10        2.65716  -0.00318  -0.00101  -0.00503  -0.00599   2.65117
   R11        2.03615   0.00011  -0.00035  -0.00004  -0.00039   2.03575
   R12        2.70433  -0.00064   0.00219   0.00390   0.00613   2.71046
   R13        2.03605   0.00014  -0.00036   0.00004  -0.00032   2.03573
   R14        2.03548  -0.00073  -0.00014  -0.00169  -0.00183   2.03365
    A1        2.24005  -0.00079  -0.00033  -0.00205  -0.00287   2.23718
    A2        2.04200   0.00049   0.00006   0.00142   0.00172   2.04372
    A3        2.00113   0.00030   0.00028   0.00063   0.00114   2.00228
    A4        2.25511  -0.00052   0.00071   0.00056   0.00080   2.25590
    A5        2.02950  -0.00021  -0.00087  -0.00366  -0.00430   2.02519
    A6        1.99855   0.00072   0.00017   0.00311   0.00352   2.00207
    A7        2.23534  -0.00055   0.00102  -0.00013   0.00034   2.23568
    A8        2.01496   0.00062   0.00000   0.00296   0.00300   2.01796
    A9        2.03200  -0.00005  -0.00087  -0.00170  -0.00253   2.02947
   A10        2.23444   0.00023   0.00100   0.00126   0.00178   2.23622
   A11        2.01027  -0.00071  -0.00049  -0.00451  -0.00484   2.00543
   A12        2.03838   0.00048  -0.00037   0.00337   0.00316   2.04154
   A13        2.25427   0.00029  -0.00003   0.00038   0.00004   2.25431
   A14        2.01671  -0.00015  -0.00002  -0.00106  -0.00093   2.01578
   A15        2.01215  -0.00014   0.00007   0.00066   0.00088   2.01303
   A16        2.25137   0.00118  -0.00013   0.00301   0.00247   2.25384
   A17        2.01981   0.00005   0.00020   0.00217   0.00248   2.02229
   A18        2.01174  -0.00122  -0.00005  -0.00475  -0.00469   2.00705
   A19        2.23516   0.00020   0.00045  -0.00065  -0.00061   2.23455
   A20        2.02489   0.00019  -0.00008   0.00247   0.00243   2.02731
   A21        2.02287  -0.00038  -0.00027  -0.00137  -0.00161   2.02126
    D1        0.03279  -0.00030   0.00166  -0.01411  -0.01241   0.02038
    D2       -3.11749  -0.00037   0.00244  -0.01258  -0.01009  -3.12758
    D3       -3.11146  -0.00027   0.00029  -0.01512  -0.01481  -3.12627
    D4        0.02145  -0.00034   0.00106  -0.01358  -0.01249   0.00896
    D5       -0.06697   0.00049   0.01515   0.03260   0.04774  -0.01923
    D6        3.08998   0.00029   0.01052   0.02240   0.03293   3.12290
    D7        3.07722   0.00045   0.01649   0.03359   0.05009   3.12731
    D8       -0.04902   0.00025   0.01186   0.02339   0.03528  -0.01374
    D9        0.03092  -0.00017  -0.01688  -0.01541  -0.03225  -0.00133
   D10        3.12540   0.00034  -0.01371   0.01473   0.00112   3.12653
   D11       -3.10211  -0.00009  -0.01763  -0.01690  -0.03452  -3.13663
   D12       -0.00763   0.00042  -0.01447   0.01325  -0.00115  -0.00877
   D13       -0.05999   0.00060   0.00779   0.03220   0.04004  -0.01995
   D14        3.09244   0.00058   0.00689   0.03469   0.04161   3.13405
   D15        3.12910   0.00007   0.00456   0.00169   0.00635   3.13546
   D16       -0.00165   0.00004   0.00366   0.00418   0.00792   0.00628
   D17        0.04724  -0.00052  -0.00858  -0.03035  -0.03897   0.00827
   D18       -3.12046  -0.00016  -0.00805  -0.00928  -0.01731  -3.13776
   D19       -3.10992  -0.00033  -0.00389  -0.02006  -0.02395  -3.13387
   D20        0.00557   0.00003  -0.00335   0.00101  -0.00229   0.00328
   D21        0.03911  -0.00075   0.01064  -0.02893  -0.01824   0.02087
   D22       -3.12869  -0.00008   0.00217  -0.00737  -0.00517  -3.13386
   D23       -3.11330  -0.00073   0.01154  -0.03142  -0.01982  -3.13312
   D24        0.00209  -0.00006   0.00307  -0.00986  -0.00675  -0.00466
   D25       -0.02453   0.00067  -0.00978   0.02478   0.01499  -0.00954
   D26       -3.13994  -0.00001  -0.00132   0.00319   0.00190  -3.13804
   D27       -3.14012   0.00030  -0.01032   0.00370  -0.00660   3.13646
   D28        0.02765  -0.00038  -0.00185  -0.01789  -0.01969   0.00797
         Item               Value     Threshold  Converged?
 Maximum Force            0.004278     0.000450     NO 
 RMS     Force            0.000928     0.000300     NO 
 Maximum Displacement     0.067808     0.001800     NO 
 RMS     Displacement     0.015998     0.001200     NO 
 Predicted change in Energy=-1.750976D-04
 GradGradGradGradGradGradGradGradGradGradGradGradGradGradGradGradGradGrad

                          Input orientation:                          
 ---------------------------------------------------------------------
 Center     Atomic      Atomic             Coordinates (Angstroms)
 Number     Number       Type             X           Y           Z
 ---------------------------------------------------------------------
      1          6           0       -2.911898   -0.268038   -0.158442
      2          6           0       -1.562643   -0.254414   -0.166248
      3          6           0       -0.662304    0.814643    0.166777
      4          6           0       -3.839434    0.842020    0.179159
      5          6           0       -0.978703    2.109396    0.581251
      6          6           0       -3.529139    2.101775    0.571708
      7          6           0       -2.238921    2.700465    0.756526
      8          1           0       -3.394318   -1.189863   -0.432841
      9          1           0       -1.082108   -1.173719   -0.457460
     10          1           0        0.385256    0.579239    0.097566
     11          1           0       -4.884468    0.599864    0.097445
     12          1           0       -0.136761    2.749512    0.785952
     13          1           0       -4.365118    2.751294    0.771104
     14          1           0       -2.240659    3.726756    1.080318
 ---------------------------------------------------------------------
                    Distance matrix (angstroms):
                    1          2          3          4          5
     1  C    0.000000
     2  C    1.349347   0.000000
     3  C    2.517665   1.436801   0.000000
     4  C    1.485438   2.550539   3.177272   0.000000
     5  C    3.152234   2.547025   1.395809   3.154631   0.000000
     6  C    2.555410   3.156472   3.168504   1.355493   2.550465
     7  C    3.178376   3.168623   2.527815   2.519684   1.402937
     8  H    1.076004   2.073926   3.441146   2.168230   4.212919
     9  H    2.063444   1.077423   2.125910   3.474382   3.445063
    10  H    3.413889   2.135154   1.075912   4.233640   2.106113
    11  H    2.170199   3.440036   4.228192   1.075832   4.215182
    12  H    4.207003   3.458814   2.098402   4.209098   1.077273
    13  H    3.477394   4.215065   4.222162   2.066898   3.451939
    14  H    4.235974   4.226506   3.436010   3.419046   2.111269
                    6          7          8          9         10
     6  C    0.000000
     7  C    1.434311   0.000000
     8  H    3.444151   4.228969   0.000000
     9  H    4.216160   4.221526   2.312397   0.000000
    10  H    4.226749   3.438041   4.206689   2.352461   0.000000
    11  H    2.077879   3.441777   2.388487   4.232193   5.269764
    12  H    3.460302   2.102938   5.255074   4.222736   2.335907
    13  H    1.077262   2.126854   4.233751   5.262437   5.266642
    14  H    2.135282   1.076160   5.271975   5.265136   4.215221
                   11         12         13         14
    11  H    0.000000
    12  H    5.256972   0.000000
    13  H    2.313481   4.228383   0.000000
    14  H    4.211084   2.338385   2.358064   0.000000
 Stoichiometry    C7H7(2)
 Framework group  C1[X(C7H7)]
 Deg. of freedom    36
 Full point group                 C1      NOp   1
 Largest Abelian subgroup         C1      NOp   1
 Largest concise Abelian subgroup C1      NOp   1
                         Standard orientation:                         
 ---------------------------------------------------------------------
 Center     Atomic      Atomic             Coordinates (Angstroms)
 Number     Number       Type             X           Y           Z
 ---------------------------------------------------------------------
      1          6           0        0.750813   -1.441307    0.006524
      2          6           0        1.578607   -0.375771   -0.004739
      3          6           0        1.257803    1.024758   -0.004517
      4          6           0       -0.734577   -1.450209   -0.001405
      5          6           0       -0.005180    1.618931    0.006139
      6          6           0       -1.577835   -0.388947   -0.001163
      7          6           0       -1.269978    1.011935   -0.002504
      8          1           0        1.206609   -2.415929    0.018569
      9          1           0        2.633217   -0.596261   -0.009324
     10          1           0        2.099554    1.694852   -0.000409
     11          1           0       -1.181701   -2.428706   -0.007600
     12          1           0       -0.010818    2.696177    0.011383
     13          1           0       -2.629144   -0.623966   -0.004080
     14          1           0       -2.115631    1.677498    0.001458
 ---------------------------------------------------------------------
 Rotational constants (GHZ):      3.7255069      3.6850495      1.8526142
 Standard basis: 6-311++G(d,p) (5D, 7F)
 There are   203 symmetry adapted basis functions of A   symmetry.
 Integral buffers will be    262144 words long.
 Raffenetti 2 integral format.
 Two-electron integral symmetry is turned on.
   203 basis functions,   315 primitive gaussians,   210 cartesian basis functions
    25 alpha electrons       24 beta electrons
       nuclear repulsion energy       257.7271364680 Hartrees.
 NAtoms=   14 NActive=   14 NUniq=   14 SFac= 7.50D-01 NAtFMM=   80 NAOKFM=F Big=F
 One-electron integrals computed using PRISM.
 NBasis=   203 RedAO= T  NBF=   203
 NBsUse=   203 1.00D-06 NBFU=   203
 Initial guess read from the read-write file.
 B after Tr=     0.000000    0.000000    0.000000
         Rot=    1.000000    0.000000    0.000000    0.000000 Ang=   0.00 deg.
 Initial guess orbital symmetries:
 Alpha Orbitals:
       Occupied  (A) (A) (A) (A) (A) (A) (A) (A) (A) (A) (A) (A)
                 (A) (A) (A) (A) (A) (A) (A) (A) (A) (A) (A) (A)
                 (A)
       Virtual   (A) (A) (A) (A) (A) (A) (A) (A) (A) (A) (A) (A)
                 (A) (A) (A) (A) (A) (A) (A) (A) (A) (A) (A) (A)
                 (A) (A) (A) (A) (A) (A) (A) (A) (A) (A) (A) (A)
                 (A) (A) (A) (A) (A) (A) (A) (A) (A) (A) (A) (A)
                 (A) (A) (A) (A) (A) (A) (A) (A) (A) (A) (A) (A)
                 (A) (A) (A) (A) (A) (A) (A) (A) (A) (A) (A) (A)
                 (A) (A) (A) (A) (A) (A) (A) (A) (A) (A) (A) (A)
                 (A) (A) (A) (A) (A) (A) (A) (A) (A) (A) (A) (A)
                 (A) (A) (A) (A) (A) (A) (A) (A) (A) (A) (A) (A)
                 (A) (A) (A) (A) (A) (A) (A) (A) (A) (A) (A) (A)
                 (A) (A) (A) (A) (A) (A) (A) (A) (A) (A) (A) (A)
                 (A) (A) (A) (A) (A) (A) (A) (A) (A) (A) (A) (A)
                 (A) (A) (A) (A) (A) (A) (A) (A) (A) (A) (A) (A)
                 (A) (A) (A) (A) (A) (A) (A) (A) (A) (A) (A) (A)
                 (A) (A) (A) (A) (A) (A) (A) (A) (A) (A)
 Beta  Orbitals:
       Occupied  (A) (A) (A) (A) (A) (A) (A) (A) (A) (A) (A) (A)
                 (A) (A) (A) (A) (A) (A) (A) (A) (A) (A) (A) (A)
       Virtual   (A) (A) (A) (A) (A) (A) (A) (A) (A) (A) (A) (A)
                 (A) (A) (A) (A) (A) (A) (A) (A) (A) (A) (A) (A)
                 (A) (A) (A) (A) (A) (A) (A) (A) (A) (A) (A) (A)
                 (A) (A) (A) (A) (A) (A) (A) (A) (A) (A) (A) (A)
                 (A) (A) (A) (A) (A) (A) (A) (A) (A) (A) (A) (A)
                 (A) (A) (A) (A) (A) (A) (A) (A) (A) (A) (A) (A)
                 (A) (A) (A) (A) (A) (A) (A) (A) (A) (A) (A) (A)
                 (A) (A) (A) (A) (A) (A) (A) (A) (A) (A) (A) (A)
                 (A) (A) (A) (A) (A) (A) (A) (A) (A) (A) (A) (A)
                 (A) (A) (A) (A) (A) (A) (A) (A) (A) (A) (A) (A)
                 (A) (A) (A) (A) (A) (A) (A) (A) (A) (A) (A) (A)
                 (A) (A) (A) (A) (A) (A) (A) (A) (A) (A) (A) (A)
                 (A) (A) (A) (A) (A) (A) (A) (A) (A) (A) (A) (A)
                 (A) (A) (A) (A) (A) (A) (A) (A) (A) (A) (A) (A)
                 (A) (A) (A) (A) (A) (A) (A) (A) (A) (A) (A)
 Initial guess <Sx>= 0.0000 <Sy>= 0.0000 <Sz>= 0.5000 <S**2>= 1.2445 S= 0.7225
 Harris functional with IExCor=  205 diagonalized for initial guess.
 ExpMin= 3.60D-02 ExpMax= 4.56D+03 ExpMxC= 6.82D+02 IAcc=3 IRadAn=         0 AccDes= 0.00D+00
 HarFok:  IExCor=  205 AccDes= 0.00D+00 IRadAn=         0 IDoV= 1
 ScaDFX=  1.000000  1.000000  1.000000  1.000000
 FoFCou: FMM=F IPFlag=           0 FMFlag=      100000 FMFlg1=           0
         NFxFlg=           0 DoJE=T BraDBF=F KetDBF=T FulRan=T
         Omega=  0.000000  0.000000  1.000000  0.000000  0.000000 ICntrl=     500 IOpCl=  0
         NMat0=    1 NMatS0=    1 NMatT0=    0 NMatD0=    1 NMtDS0=    0 NMtDT0=    0
         I1Cent=           4 NGrid=           0.
 Petite list used in FoFCou.
 Requested convergence on RMS density matrix=1.00D-08 within 128 cycles.
 Requested convergence on MAX density matrix=1.00D-06.
 Requested convergence on             energy=1.00D-06.
 No special actions if energy rises.
 Initial convergence to 1.0D-05 achieved.  Increase integral accuracy.
 SCF Done:  E(UHF) =  -269.163326494     A.U. after   23 cycles
             Convg  =    0.5623D-08             -V/T =  2.0003
 <Sx>= 0.0000 <Sy>= 0.0000 <Sz>= 0.5000 <S**2>= 1.2436 S= 0.7221
 <L.S>= 0.000000000000E+00
 Annihilation of the first spin contaminant:
 S**2 before annihilation     1.2436,   after     0.9437
 Calling FoFJK, ICntrl=      2127 FMM=F ISym2X=0 I1Cent= 0 IOpClX= 1 NMat=1 NMatS=1 NMatT=0.
 ***** Axes restored to original set *****
 -------------------------------------------------------------------
 Center     Atomic                   Forces (Hartrees/Bohr)
 Number     Number              X              Y              Z
 -------------------------------------------------------------------
      1        6          -0.001601807    0.000846220   -0.000285583
      2        6           0.001134287    0.000152228    0.000305052
      3        6           0.000216477   -0.000731773    0.000306635
      4        6           0.000934244    0.001097237    0.000843441
      5        6          -0.002936993    0.001523806   -0.000739113
      6        6           0.000885276   -0.001494959   -0.001110867
      7        6           0.001359800   -0.001301960    0.000890576
      8        1           0.000005697   -0.000136838   -0.000382240
      9        1           0.000060822   -0.000326025    0.000237998
     10        1           0.000154515    0.000008382   -0.000221101
     11        1          -0.000225569   -0.000214986    0.000111224
     12        1           0.000223001    0.000148320    0.000115304
     13        1          -0.000037060    0.000456880    0.000046826
     14        1          -0.000172690   -0.000026532   -0.000118153
 -------------------------------------------------------------------
 Cartesian Forces:  Max     0.002936993 RMS     0.000833388

 GradGradGradGradGradGradGradGradGradGradGradGradGradGradGradGradGradGrad
 Berny optimization.
 Using GEDIIS/GDIIS optimizer.
 Internal  Forces:  Max     0.002349096 RMS     0.000455378
 Search for a local minimum.
 Step number   8 out of a maximum of   73
 All quantities printed in internal units (Hartrees-Bohrs-Radians)
 Mixed Optimization -- En-DIIS/RFO-DIIS
 Swaping is turned off.
 Update second derivatives using D2CorX and points    6    7    8
 DE= -2.21D-04 DEPred=-1.75D-04 R= 1.26D+00
 SS=  1.41D+00  RLast= 1.33D-01 DXNew= 2.5003D+00 3.9973D-01
 Trust test= 1.26D+00 RLast= 1.33D-01 DXMaxT set to 1.49D+00
     Eigenvalues ---    0.00542   0.01290   0.01653   0.01824   0.01988
     Eigenvalues ---    0.02107   0.02156   0.02188   0.02235   0.02404
     Eigenvalues ---    0.02626   0.15743   0.15903   0.15999   0.16000
     Eigenvalues ---    0.16031   0.16064   0.16147   0.21617   0.21952
     Eigenvalues ---    0.21996   0.22048   0.31078   0.31757   0.33104
     Eigenvalues ---    0.33106   0.33121   0.33331   0.33416   0.35768
     Eigenvalues ---    0.38335   0.40030   0.41664   0.47995   0.54930
     Eigenvalues ---    0.564891000.000001000.000001000.000001000.00000
     Eigenvalues --- 1000.000001000.000001000.000001000.000001000.00000
     Eigenvalues --- 1000.000001000.000001000.000001000.000001000.00000
     Eigenvalues --- 1000.000001000.000001000.000001000.000001000.00000
     Eigenvalues --- 1000.000001000.000001000.000001000.000001000.00000
     Eigenvalues --- 1000.000001000.000001000.00000
 En-DIIS/RFO-DIIS IScMMF=        0 using points:     8    7
 RFO step:  Lambda=-2.61244135D-05.
 DIIS coeffs:      1.43953     -0.43953
 Iteration  1 RMS(Cart)=  0.00777028 RMS(Int)=  0.00006441
 Iteration  2 RMS(Cart)=  0.00005733 RMS(Int)=  0.00004879
 Iteration  3 RMS(Cart)=  0.00000000 RMS(Int)=  0.00004879
 Variable       Old X    -DE/DX   Delta X   Delta X   Delta X     New X
                                  (DIIS)     (GDIIS)  (Total)
    R1        2.54990   0.00104   0.00422   0.00005   0.00425   2.55415
    R2        2.80707  -0.00063  -0.00003  -0.00129  -0.00134   2.80573
    R3        2.03335   0.00021  -0.00061   0.00075   0.00014   2.03349
    R4        2.71516  -0.00019  -0.00219  -0.00026  -0.00245   2.71271
    R5        2.03603   0.00024  -0.00017   0.00057   0.00040   2.03644
    R6        2.63770   0.00065   0.00150   0.00154   0.00305   2.64075
    R7        2.03318   0.00016  -0.00010   0.00025   0.00015   2.03333
    R8        2.56151  -0.00148  -0.00501  -0.00058  -0.00560   2.55591
    R9        2.03303   0.00026   0.00001   0.00056   0.00056   2.03359
   R10        2.65117  -0.00235  -0.00263  -0.00510  -0.00771   2.64346
   R11        2.03575   0.00028  -0.00017   0.00077   0.00060   2.03635
   R12        2.71046  -0.00098   0.00269  -0.00246   0.00025   2.71070
   R13        2.03573   0.00031  -0.00014   0.00086   0.00072   2.03645
   R14        2.03365  -0.00006  -0.00080   0.00037  -0.00043   2.03321
    A1        2.23718  -0.00020  -0.00126   0.00055  -0.00085   2.23633
    A2        2.04372  -0.00002   0.00076  -0.00164  -0.00081   2.04290
    A3        2.00228   0.00022   0.00050   0.00110   0.00167   2.00395
    A4        2.25590  -0.00038   0.00035  -0.00088  -0.00065   2.25526
    A5        2.02519   0.00014  -0.00189   0.00093  -0.00091   2.02429
    A6        2.00207   0.00025   0.00155  -0.00003   0.00157   2.00364
    A7        2.23568  -0.00035   0.00015  -0.00097  -0.00100   2.23468
    A8        2.01796   0.00016   0.00132  -0.00038   0.00088   2.01884
    A9        2.02947   0.00020  -0.00111   0.00136   0.00019   2.02966
   A10        2.23622   0.00003   0.00078  -0.00042   0.00023   2.23644
   A11        2.00543  -0.00013  -0.00213   0.00069  -0.00139   2.00404
   A12        2.04154   0.00010   0.00139  -0.00027   0.00116   2.04270
   A13        2.25431   0.00032   0.00002   0.00136   0.00129   2.25560
   A14        2.01578  -0.00016  -0.00041  -0.00097  -0.00139   2.01439
   A15        2.01303  -0.00016   0.00039  -0.00023   0.00015   2.01319
   A16        2.25384   0.00050   0.00109   0.00053   0.00150   2.25534
   A17        2.02229   0.00008   0.00109   0.00077   0.00187   2.02416
   A18        2.00705  -0.00058  -0.00206  -0.00132  -0.00337   2.00368
   A19        2.23455   0.00010  -0.00027   0.00007  -0.00027   2.23427
   A20        2.02731   0.00013   0.00107   0.00086   0.00193   2.02924
   A21        2.02126  -0.00022  -0.00071  -0.00088  -0.00159   2.01967
    D1        0.02038  -0.00028  -0.00545  -0.01227  -0.01770   0.00268
    D2       -3.12758  -0.00023  -0.00443  -0.00746  -0.01187  -3.13945
    D3       -3.12627  -0.00021  -0.00651  -0.00882  -0.01532  -3.14159
    D4        0.00896  -0.00017  -0.00549  -0.00401  -0.00949  -0.00053
    D5       -0.01923   0.00018   0.02098   0.00331   0.02429   0.00505
    D6        3.12290   0.00015   0.01447   0.00563   0.02011  -3.14017
    D7        3.12731   0.00012   0.02202  -0.00007   0.02196  -3.13392
    D8       -0.01374   0.00009   0.01551   0.00225   0.01778   0.00404
    D9       -0.00133   0.00007  -0.01418   0.00681  -0.00734  -0.00867
   D10        3.12653   0.00022   0.00049   0.00804   0.00858   3.13511
   D11       -3.13663   0.00003  -0.01517   0.00205  -0.01311   3.13345
   D12       -0.00877   0.00017  -0.00050   0.00329   0.00282  -0.00596
   D13       -0.01995   0.00027   0.01760   0.00724   0.02485   0.00490
   D14        3.13405   0.00002   0.01829  -0.00863   0.00967  -3.13946
   D15        3.13546   0.00012   0.00279   0.00600   0.00884  -3.13889
   D16        0.00628  -0.00012   0.00348  -0.00986  -0.00634  -0.00007
   D17        0.00827  -0.00007  -0.01713   0.00465  -0.01250  -0.00422
   D18       -3.13776  -0.00005  -0.00761  -0.00108  -0.00869   3.13674
   D19       -3.13387  -0.00005  -0.01053   0.00229  -0.00824   3.14107
   D20        0.00328  -0.00002  -0.00101  -0.00344  -0.00443  -0.00115
   D21        0.02087  -0.00037  -0.00802  -0.01065  -0.01866   0.00221
   D22       -3.13386  -0.00010  -0.00227  -0.00572  -0.00798   3.14135
   D23       -3.13312  -0.00012  -0.00871   0.00519  -0.00350  -3.13662
   D24       -0.00466   0.00014  -0.00296   0.01012   0.00718   0.00252
   D25       -0.00954   0.00020   0.00659   0.00105   0.00762  -0.00192
   D26       -3.13804  -0.00007   0.00084  -0.00388  -0.00303  -3.14107
   D27        3.13646   0.00018  -0.00290   0.00674   0.00384   3.14030
   D28        0.00797  -0.00009  -0.00865   0.00181  -0.00682   0.00115
         Item               Value     Threshold  Converged?
 Maximum Force            0.002349     0.000450     NO 
 RMS     Force            0.000455     0.000300     NO 
 Maximum Displacement     0.039540     0.001800     NO 
 RMS     Displacement     0.007775     0.001200     NO 
 Predicted change in Energy=-4.441105D-05
 GradGradGradGradGradGradGradGradGradGradGradGradGradGradGradGradGradGrad

                          Input orientation:                          
 ---------------------------------------------------------------------
 Center     Atomic      Atomic             Coordinates (Angstroms)
 Number     Number       Type             X           Y           Z
 ---------------------------------------------------------------------
      1          6           0       -2.913087   -0.265728   -0.164005
      2          6           0       -1.561529   -0.255488   -0.162168
      3          6           0       -0.662441    0.811718    0.174563
      4          6           0       -3.838770    0.841693    0.184064
      5          6           0       -0.981113    2.111690    0.576200
      6          6           0       -3.527838    2.099425    0.572358
      7          6           0       -2.237813    2.699052    0.756509
      8          1           0       -3.395118   -1.183130   -0.453764
      9          1           0       -1.082031   -1.175622   -0.453256
     10          1           0        0.385501    0.577488    0.105960
     11          1           0       -4.884070    0.596954    0.109863
     12          1           0       -0.138941    2.752901    0.778172
     13          1           0       -4.362161    2.751089    0.773746
     14          1           0       -2.241805    3.726886    1.074574
 ---------------------------------------------------------------------
                    Distance matrix (angstroms):
                    1          2          3          4          5
     1  C    0.000000
     2  C    1.351598   0.000000
     3  C    2.518119   1.435505   0.000000
     4  C    1.484729   2.551374   3.176484   0.000000
     5  C    3.151593   2.546684   1.397423   3.151645   0.000000
     6  C    2.552273   3.154601   3.166532   1.352531   2.546757
     7  C    3.176989   3.167117   2.526359   2.518043   1.398857
     8  H    1.076077   2.075475   3.441182   2.168769   4.212372
     9  H    2.065028   1.077636   2.125966   3.474960   3.446213
    10  H    3.415345   2.134636   1.075990   4.233246   2.107732
    11  H    2.168870   3.440921   4.227583   1.076130   4.212478
    12  H    4.206627   3.458092   2.099188   4.206474   1.077590
    13  H    3.475684   4.214140   4.219965   2.065783   3.446642
    14  H    4.233871   4.225116   3.435493   3.415794   2.108691
                    6          7          8          9         10
     6  C    0.000000
     7  C    1.434443   0.000000
     8  H    3.441759   4.227937   0.000000
     9  H    4.214236   4.220482   2.313100   0.000000
    10  H    4.224694   3.435990   4.207868   2.353672   0.000000
    11  H    2.076219   3.440878   2.388169   4.232568   5.269609
    12  H    3.457458   2.099675   5.254779   4.223639   2.336521
    13  H    1.077645   2.125055   4.233206   5.261545   5.264103
    14  H    2.134182   1.075930   5.270124   5.264402   4.214221
                   11         12         13         14
    11  H    0.000000
    12  H    5.254617   0.000000
    13  H    2.313748   4.223223   0.000000
    14  H    4.208172   2.336352   2.353421   0.000000
 Stoichiometry    C7H7(2)
 Framework group  C1[X(C7H7)]
 Deg. of freedom    36
 Full point group                 C1      NOp   1
 Largest Abelian subgroup         C1      NOp   1
 Largest concise Abelian subgroup C1      NOp   1
                         Standard orientation:                         
 ---------------------------------------------------------------------
 Center     Atomic      Atomic             Coordinates (Angstroms)
 Number     Number       Type             X           Y           Z
 ---------------------------------------------------------------------
      1          6           0        0.762631   -1.434954   -0.000577
      2          6           0        1.582368   -0.360315   -0.001932
      3          6           0        1.248563    1.035833    0.002542
      4          6           0       -0.721951   -1.455578    0.002868
      5          6           0       -0.022101    1.617379   -0.000092
      6          6           0       -1.571937   -0.403506    0.000009
      7          6           0       -1.277542    1.000400   -0.002336
      8          1           0        1.227810   -2.405280   -0.004718
      9          1           0        2.638906   -0.572458   -0.006577
     10          1           0        2.083374    1.714676    0.006561
     11          1           0       -1.160109   -2.438466    0.004768
     12          1           0       -0.037607    2.694855    0.002249
     13          1           0       -2.622134   -0.645179   -0.001228
     14          1           0       -2.130429    1.656301   -0.003947
 ---------------------------------------------------------------------
 Rotational constants (GHZ):      3.7285837      3.6887791      1.8542933
 Standard basis: 6-311++G(d,p) (5D, 7F)
 There are   203 symmetry adapted basis functions of A   symmetry.
 Integral buffers will be    262144 words long.
 Raffenetti 2 integral format.
 Two-electron integral symmetry is turned on.
   203 basis functions,   315 primitive gaussians,   210 cartesian basis functions
    25 alpha electrons       24 beta electrons
       nuclear repulsion energy       257.8333193808 Hartrees.
 NAtoms=   14 NActive=   14 NUniq=   14 SFac= 7.50D-01 NAtFMM=   80 NAOKFM=F Big=F
 One-electron integrals computed using PRISM.
 NBasis=   203 RedAO= T  NBF=   203
 NBsUse=   203 1.00D-06 NBFU=   203
 Initial guess read from the read-write file.
 B after Tr=     0.000000    0.000000    0.000000
         Rot=    1.000000    0.000000    0.000000    0.000000 Ang=   0.00 deg.
 Initial guess orbital symmetries:
 Alpha Orbitals:
       Occupied  (A) (A) (A) (A) (A) (A) (A) (A) (A) (A) (A) (A)
                 (A) (A) (A) (A) (A) (A) (A) (A) (A) (A) (A) (A)
                 (A)
       Virtual   (A) (A) (A) (A) (A) (A) (A) (A) (A) (A) (A) (A)
                 (A) (A) (A) (A) (A) (A) (A) (A) (A) (A) (A) (A)
                 (A) (A) (A) (A) (A) (A) (A) (A) (A) (A) (A) (A)
                 (A) (A) (A) (A) (A) (A) (A) (A) (A) (A) (A) (A)
                 (A) (A) (A) (A) (A) (A) (A) (A) (A) (A) (A) (A)
                 (A) (A) (A) (A) (A) (A) (A) (A) (A) (A) (A) (A)
                 (A) (A) (A) (A) (A) (A) (A) (A) (A) (A) (A) (A)
                 (A) (A) (A) (A) (A) (A) (A) (A) (A) (A) (A) (A)
                 (A) (A) (A) (A) (A) (A) (A) (A) (A) (A) (A) (A)
                 (A) (A) (A) (A) (A) (A) (A) (A) (A) (A) (A) (A)
                 (A) (A) (A) (A) (A) (A) (A) (A) (A) (A) (A) (A)
                 (A) (A) (A) (A) (A) (A) (A) (A) (A) (A) (A) (A)
                 (A) (A) (A) (A) (A) (A) (A) (A) (A) (A) (A) (A)
                 (A) (A) (A) (A) (A) (A) (A) (A) (A) (A) (A) (A)
                 (A) (A) (A) (A) (A) (A) (A) (A) (A) (A)
 Beta  Orbitals:
       Occupied  (A) (A) (A) (A) (A) (A) (A) (A) (A) (A) (A) (A)
                 (A) (A) (A) (A) (A) (A) (A) (A) (A) (A) (A) (A)
       Virtual   (A) (A) (A) (A) (A) (A) (A) (A) (A) (A) (A) (A)
                 (A) (A) (A) (A) (A) (A) (A) (A) (A) (A) (A) (A)
                 (A) (A) (A) (A) (A) (A) (A) (A) (A) (A) (A) (A)
                 (A) (A) (A) (A) (A) (A) (A) (A) (A) (A) (A) (A)
                 (A) (A) (A) (A) (A) (A) (A) (A) (A) (A) (A) (A)
                 (A) (A) (A) (A) (A) (A) (A) (A) (A) (A) (A) (A)
                 (A) (A) (A) (A) (A) (A) (A) (A) (A) (A) (A) (A)
                 (A) (A) (A) (A) (A) (A) (A) (A) (A) (A) (A) (A)
                 (A) (A) (A) (A) (A) (A) (A) (A) (A) (A) (A) (A)
                 (A) (A) (A) (A) (A) (A) (A) (A) (A) (A) (A) (A)
                 (A) (A) (A) (A) (A) (A) (A) (A) (A) (A) (A) (A)
                 (A) (A) (A) (A) (A) (A) (A) (A) (A) (A) (A) (A)
                 (A) (A) (A) (A) (A) (A) (A) (A) (A) (A) (A) (A)
                 (A) (A) (A) (A) (A) (A) (A) (A) (A) (A) (A) (A)
                 (A) (A) (A) (A) (A) (A) (A) (A) (A) (A) (A)
 Initial guess <Sx>= 0.0000 <Sy>= 0.0000 <Sz>= 0.5000 <S**2>= 1.2431 S= 0.7219
 Harris functional with IExCor=  205 diagonalized for initial guess.
 ExpMin= 3.60D-02 ExpMax= 4.56D+03 ExpMxC= 6.82D+02 IAcc=3 IRadAn=         0 AccDes= 0.00D+00
 HarFok:  IExCor=  205 AccDes= 0.00D+00 IRadAn=         0 IDoV= 1
 ScaDFX=  1.000000  1.000000  1.000000  1.000000
 FoFCou: FMM=F IPFlag=           0 FMFlag=      100000 FMFlg1=           0
         NFxFlg=           0 DoJE=T BraDBF=F KetDBF=T FulRan=T
         Omega=  0.000000  0.000000  1.000000  0.000000  0.000000 ICntrl=     500 IOpCl=  0
         NMat0=    1 NMatS0=    1 NMatT0=    0 NMatD0=    1 NMtDS0=    0 NMtDT0=    0
         I1Cent=           4 NGrid=           0.
 Petite list used in FoFCou.
 Requested convergence on RMS density matrix=1.00D-08 within 128 cycles.
 Requested convergence on MAX density matrix=1.00D-06.
 Requested convergence on             energy=1.00D-06.
 No special actions if energy rises.
 Initial convergence to 1.0D-05 achieved.  Increase integral accuracy.
 SCF Done:  E(UHF) =  -269.163371805     A.U. after   19 cycles
             Convg  =    0.9285D-08             -V/T =  2.0003
 <Sx>= 0.0000 <Sy>= 0.0000 <Sz>= 0.5000 <S**2>= 1.2409 S= 0.7210
 <L.S>= 0.000000000000E+00
 Annihilation of the first spin contaminant:
 S**2 before annihilation     1.2409,   after     0.9416
 Calling FoFJK, ICntrl=      2127 FMM=F ISym2X=0 I1Cent= 0 IOpClX= 1 NMat=1 NMatS=1 NMatT=0.
 ***** Axes restored to original set *****
 -------------------------------------------------------------------
 Center     Atomic                   Forces (Hartrees/Bohr)
 Number     Number              X              Y              Z
 -------------------------------------------------------------------
      1        6          -0.000240297    0.000310387   -0.000023730
      2        6           0.000204357    0.000112308    0.000139341
      3        6           0.000054070   -0.000497055   -0.000275450
      4        6           0.000124293   -0.000097218   -0.000122874
      5        6          -0.000384514    0.000348128    0.000390443
      6        6          -0.000027645   -0.000044930   -0.000113362
      7        6           0.000210595   -0.000111247   -0.000046223
      8        1          -0.000039638   -0.000118621   -0.000016163
      9        1           0.000070767   -0.000078507    0.000067267
     10        1           0.000074653    0.000008215   -0.000070524
     11        1          -0.000079426   -0.000001261    0.000019284
     12        1           0.000123548    0.000050235   -0.000076077
     13        1          -0.000067297    0.000011948    0.000115875
     14        1          -0.000023465    0.000107619    0.000012193
 -------------------------------------------------------------------
 Cartesian Forces:  Max     0.000497055 RMS     0.000168546

 GradGradGradGradGradGradGradGradGradGradGradGradGradGradGradGradGradGrad
 Berny optimization.
 Using GEDIIS/GDIIS optimizer.
 Internal  Forces:  Max     0.000447932 RMS     0.000084563
 Search for a local minimum.
 Step number   9 out of a maximum of   73
 All quantities printed in internal units (Hartrees-Bohrs-Radians)
 Mixed Optimization -- En-DIIS/RFO-DIIS
 Swaping is turned off.
 Update second derivatives using D2CorX and points    7    8    9
 DE= -4.53D-05 DEPred=-4.44D-05 R= 1.02D+00
 SS=  1.41D+00  RLast= 6.93D-02 DXNew= 2.5003D+00 2.0783D-01
 Trust test= 1.02D+00 RLast= 6.93D-02 DXMaxT set to 1.49D+00
     Eigenvalues ---    0.00581   0.01279   0.01506   0.01939   0.02000
     Eigenvalues ---    0.02107   0.02153   0.02187   0.02233   0.02401
     Eigenvalues ---    0.02618   0.15708   0.15908   0.16000   0.16000
     Eigenvalues ---    0.16031   0.16064   0.16162   0.21621   0.21941
     Eigenvalues ---    0.21967   0.22057   0.30710   0.31751   0.33104
     Eigenvalues ---    0.33106   0.33120   0.33323   0.33418   0.35918
     Eigenvalues ---    0.38066   0.39912   0.41421   0.46686   0.55282
     Eigenvalues ---    0.572531000.000001000.000001000.000001000.00000
     Eigenvalues --- 1000.000001000.000001000.000001000.000001000.00000
     Eigenvalues --- 1000.000001000.000001000.000001000.000001000.00000
     Eigenvalues --- 1000.000001000.000001000.000001000.000001000.00000
     Eigenvalues --- 1000.000001000.000001000.000001000.000001000.00000
     Eigenvalues --- 1000.000001000.000001000.00000
 En-DIIS/RFO-DIIS IScMMF=        0 using points:     9    8    7
 RFO step:  Lambda=-9.87477268D-07.
 DIIS coeffs:      0.99105      0.03339     -0.02444
 Iteration  1 RMS(Cart)=  0.00201575 RMS(Int)=  0.00000432
 Iteration  2 RMS(Cart)=  0.00000308 RMS(Int)=  0.00000352
 Iteration  3 RMS(Cart)=  0.00000000 RMS(Int)=  0.00000352
 Variable       Old X    -DE/DX   Delta X   Delta X   Delta X     New X
                                  (DIIS)     (GDIIS)  (Total)
    R1        2.55415   0.00023   0.00020   0.00007   0.00027   2.55442
    R2        2.80573  -0.00012   0.00001  -0.00051  -0.00050   2.80523
    R3        2.03349   0.00012  -0.00004   0.00033   0.00029   2.03378
    R4        2.71271  -0.00014  -0.00010   0.00005  -0.00005   2.71266
    R5        2.03644   0.00008  -0.00001   0.00017   0.00016   2.03659
    R6        2.64075   0.00045   0.00006   0.00057   0.00062   2.64137
    R7        2.03333   0.00008  -0.00001   0.00015   0.00014   2.03347
    R8        2.55591   0.00001  -0.00023   0.00026   0.00003   2.55595
    R9        2.03359   0.00008   0.00000   0.00016   0.00016   2.03375
   R10        2.64346  -0.00010  -0.00008  -0.00024  -0.00032   2.64314
   R11        2.03635   0.00011  -0.00001   0.00029   0.00027   2.03662
   R12        2.71070   0.00011   0.00015  -0.00003   0.00012   2.71083
   R13        2.03645   0.00008  -0.00001   0.00020   0.00018   2.03664
   R14        2.03321   0.00011  -0.00004   0.00021   0.00016   2.03338
    A1        2.23633   0.00006  -0.00006   0.00034   0.00027   2.23660
    A2        2.04290  -0.00005   0.00005  -0.00036  -0.00031   2.04260
    A3        2.00395  -0.00001   0.00001   0.00002   0.00004   2.00398
    A4        2.25526   0.00000   0.00003  -0.00002  -0.00001   2.25525
    A5        2.02429   0.00004  -0.00010   0.00031   0.00022   2.02451
    A6        2.00364  -0.00004   0.00007  -0.00029  -0.00021   2.00343
    A7        2.23468  -0.00008   0.00002  -0.00033  -0.00032   2.23436
    A8        2.01884   0.00004   0.00007   0.00011   0.00017   2.01901
    A9        2.02966   0.00004  -0.00006   0.00022   0.00015   2.02982
   A10        2.23644   0.00000   0.00004  -0.00015  -0.00011   2.23633
   A11        2.00404   0.00002  -0.00011   0.00031   0.00021   2.00424
   A12        2.04270  -0.00002   0.00007  -0.00015  -0.00009   2.04261
   A13        2.25560   0.00001  -0.00001   0.00017   0.00015   2.25575
   A14        2.01439  -0.00006  -0.00001  -0.00041  -0.00042   2.01397
   A15        2.01319   0.00005   0.00002   0.00025   0.00027   2.01346
   A16        2.25534   0.00001   0.00005   0.00000   0.00004   2.25539
   A17        2.02416  -0.00001   0.00004  -0.00006  -0.00001   2.02415
   A18        2.00368   0.00000  -0.00008   0.00005  -0.00003   2.00365
   A19        2.23427   0.00000  -0.00001   0.00002   0.00000   2.23428
   A20        2.02924   0.00002   0.00004   0.00012   0.00017   2.02941
   A21        2.01967  -0.00003  -0.00003  -0.00014  -0.00017   2.01950
    D1        0.00268  -0.00004  -0.00014  -0.00251  -0.00265   0.00003
    D2       -3.13945  -0.00004  -0.00014  -0.00213  -0.00226   3.14147
    D3       -3.14159  -0.00001  -0.00022  -0.00035  -0.00057   3.14103
    D4       -0.00053   0.00000  -0.00022   0.00003  -0.00019  -0.00071
    D5        0.00505  -0.00001   0.00095  -0.00271  -0.00176   0.00329
    D6       -3.14017   0.00003   0.00062   0.00038   0.00100  -3.13917
    D7       -3.13392  -0.00005   0.00103  -0.00483  -0.00380  -3.13772
    D8        0.00404   0.00000   0.00070  -0.00174  -0.00104   0.00300
    D9       -0.00867   0.00007  -0.00072   0.00604   0.00531  -0.00335
   D10        3.13511   0.00007  -0.00005   0.00546   0.00541   3.14052
   D11        3.13345   0.00007  -0.00073   0.00566   0.00493   3.13838
   D12       -0.00596   0.00006  -0.00005   0.00508   0.00503  -0.00093
   D13        0.00490  -0.00004   0.00076  -0.00294  -0.00219   0.00271
   D14       -3.13946   0.00002   0.00093   0.00032   0.00125  -3.13822
   D15       -3.13889  -0.00003   0.00008  -0.00236  -0.00228  -3.14117
   D16       -0.00007   0.00003   0.00025   0.00090   0.00115   0.00108
   D17       -0.00422   0.00003  -0.00084   0.00248   0.00164  -0.00258
   D18        3.13674   0.00007  -0.00035   0.00450   0.00415   3.14089
   D19        3.14107  -0.00002  -0.00051  -0.00066  -0.00117   3.13990
   D20       -0.00115   0.00002  -0.00002   0.00135   0.00134   0.00019
   D21        0.00221   0.00000  -0.00028  -0.00192  -0.00219   0.00001
   D22        3.14135   0.00001  -0.00005   0.00022   0.00017   3.14152
   D23       -3.13662  -0.00006  -0.00045  -0.00517  -0.00562   3.14094
   D24        0.00252  -0.00005  -0.00023  -0.00303  -0.00326  -0.00074
   D25       -0.00192   0.00000   0.00030   0.00156   0.00186  -0.00006
   D26       -3.14107  -0.00001   0.00007  -0.00057  -0.00050  -3.14157
   D27        3.14030  -0.00004  -0.00020  -0.00044  -0.00063   3.13967
   D28        0.00115  -0.00006  -0.00042  -0.00257  -0.00298  -0.00184
         Item               Value     Threshold  Converged?
 Maximum Force            0.000448     0.000450     YES
 RMS     Force            0.000085     0.000300     YES
 Maximum Displacement     0.008078     0.001800     NO 
 RMS     Displacement     0.002016     0.001200     NO 
 Predicted change in Energy=-2.011689D-06
 GradGradGradGradGradGradGradGradGradGradGradGradGradGradGradGradGradGrad

                          Input orientation:                          
 ---------------------------------------------------------------------
 Center     Atomic      Atomic             Coordinates (Angstroms)
 Number     Number       Type             X           Y           Z
 ---------------------------------------------------------------------
      1          6           0       -2.913196   -0.265287   -0.164639
      2          6           0       -1.561493   -0.255870   -0.160936
      3          6           0       -0.662245    0.811758    0.173901
      4          6           0       -3.838833    0.842365    0.181680
      5          6           0       -0.981235    2.111584    0.576901
      6          6           0       -3.527867    2.099533    0.571833
      7          6           0       -2.237797    2.698507    0.758284
      8          1           0       -3.395161   -1.183352   -0.452975
      9          1           0       -1.081905   -1.177013   -0.448981
     10          1           0        0.385783    0.578401    0.102498
     11          1           0       -4.884241    0.597866    0.107014
     12          1           0       -0.138778    2.753621    0.775811
     13          1           0       -4.362259    2.750621    0.775309
     14          1           0       -2.241991    3.726194    1.077116
 ---------------------------------------------------------------------
                    Distance matrix (angstroms):
                    1          2          3          4          5
     1  C    0.000000
     2  C    1.351740   0.000000
     3  C    2.518216   1.435476   0.000000
     4  C    1.484464   2.551427   3.176744   0.000000
     5  C    3.151487   2.546751   1.397752   3.151664   0.000000
     6  C    2.551977   3.154599   3.166780   1.352550   2.546665
     7  C    3.176795   3.167127   2.526596   2.518144   1.398687
     8  H    1.076230   2.075536   3.441260   2.168677   4.212398
     9  H    2.065361   1.077719   2.125866   3.475092   3.446366
    10  H    3.415616   2.134782   1.076066   4.233595   2.108185
    11  H    2.168835   3.441121   4.227939   1.076212   4.212552
    12  H    4.206620   3.458129   2.099321   4.206697   1.077734
    13  H    3.475484   4.214242   4.220306   2.065869   3.446601
    14  H    4.233721   4.225243   3.435888   3.415871   2.108717
                    6          7          8          9         10
     6  C    0.000000
     7  C    1.434508   0.000000
     8  H    3.441682   4.227939   0.000000
     9  H    4.214325   4.220571   2.313268   0.000000
    10  H    4.225017   3.436288   4.208072   2.353660   0.000000
    11  H    2.076249   3.441004   2.388239   4.232857   5.270062
    12  H    3.457653   2.099816   5.254875   4.223682   2.336685
    13  H    1.077743   2.125169   4.233215   5.261741   5.264515
    14  H    2.134200   1.076017   5.270163   5.264618   4.214698
                   11         12         13         14
    11  H    0.000000
    12  H    5.254902   0.000000
    13  H    2.313750   4.223483   0.000000
    14  H    4.208208   2.336705   2.353373   0.000000
 Stoichiometry    C7H7(2)
 Framework group  C1[X(C7H7)]
 Deg. of freedom    36
 Full point group                 C1      NOp   1
 Largest Abelian subgroup         C1      NOp   1
 Largest concise Abelian subgroup C1      NOp   1
                         Standard orientation:                         
 ---------------------------------------------------------------------
 Center     Atomic      Atomic             Coordinates (Angstroms)
 Number     Number       Type             X           Y           Z
 ---------------------------------------------------------------------
      1          6           0        0.752661   -1.440024   -0.000699
      2          6           0        1.579924   -0.370988   -0.000524
      3          6           0        1.255802    1.027416    0.001448
      4          6           0       -0.731763   -1.450747    0.001097
      5          6           0       -0.011302    1.617464   -0.000013
      6          6           0       -1.574599   -0.392911   -0.000211
      7          6           0       -1.270726    1.009043   -0.000771
      8          1           0        1.211468   -2.413555   -0.002904
      9          1           0        2.635104   -0.590243   -0.001936
     10          1           0        2.095240    1.700663    0.002203
     11          1           0       -1.176703   -2.430674    0.002919
     12          1           0       -0.019244    2.695169   -0.001291
     13          1           0       -2.626504   -0.627480    0.000877
     14          1           0       -2.119348    1.670595   -0.001832
 ---------------------------------------------------------------------
 Rotational constants (GHZ):      3.7284941      3.6886353      1.8542300
 Standard basis: 6-311++G(d,p) (5D, 7F)
 There are   203 symmetry adapted basis functions of A   symmetry.
 Integral buffers will be    262144 words long.
 Raffenetti 2 integral format.
 Two-electron integral symmetry is turned on.
   203 basis functions,   315 primitive gaussians,   210 cartesian basis functions
    25 alpha electrons       24 beta electrons
       nuclear repulsion energy       257.8272062521 Hartrees.
 NAtoms=   14 NActive=   14 NUniq=   14 SFac= 7.50D-01 NAtFMM=   80 NAOKFM=F Big=F
 One-electron integrals computed using PRISM.
 NBasis=   203 RedAO= T  NBF=   203
 NBsUse=   203 1.00D-06 NBFU=   203
 Initial guess read from the read-write file.
 B after Tr=     0.000000    0.000000    0.000000
         Rot=    1.000000    0.000000    0.000000    0.000000 Ang=   0.00 deg.
 Initial guess orbital symmetries:
 Alpha Orbitals:
       Occupied  (A) (A) (A) (A) (A) (A) (A) (A) (A) (A) (A) (A)
                 (A) (A) (A) (A) (A) (A) (A) (A) (A) (A) (A) (A)
                 (A)
       Virtual   (A) (A) (A) (A) (A) (A) (A) (A) (A) (A) (A) (A)
                 (A) (A) (A) (A) (A) (A) (A) (A) (A) (A) (A) (A)
                 (A) (A) (A) (A) (A) (A) (A) (A) (A) (A) (A) (A)
                 (A) (A) (A) (A) (A) (A) (A) (A) (A) (A) (A) (A)
                 (A) (A) (A) (A) (A) (A) (A) (A) (A) (A) (A) (A)
                 (A) (A) (A) (A) (A) (A) (A) (A) (A) (A) (A) (A)
                 (A) (A) (A) (A) (A) (A) (A) (A) (A) (A) (A) (A)
                 (A) (A) (A) (A) (A) (A) (A) (A) (A) (A) (A) (A)
                 (A) (A) (A) (A) (A) (A) (A) (A) (A) (A) (A) (A)
                 (A) (A) (A) (A) (A) (A) (A) (A) (A) (A) (A) (A)
                 (A) (A) (A) (A) (A) (A) (A) (A) (A) (A) (A) (A)
                 (A) (A) (A) (A) (A) (A) (A) (A) (A) (A) (A) (A)
                 (A) (A) (A) (A) (A) (A) (A) (A) (A) (A) (A) (A)
                 (A) (A) (A) (A) (A) (A) (A) (A) (A) (A) (A) (A)
                 (A) (A) (A) (A) (A) (A) (A) (A) (A) (A)
 Beta  Orbitals:
       Occupied  (A) (A) (A) (A) (A) (A) (A) (A) (A) (A) (A) (A)
                 (A) (A) (A) (A) (A) (A) (A) (A) (A) (A) (A) (A)
       Virtual   (A) (A) (A) (A) (A) (A) (A) (A) (A) (A) (A) (A)
                 (A) (A) (A) (A) (A) (A) (A) (A) (A) (A) (A) (A)
                 (A) (A) (A) (A) (A) (A) (A) (A) (A) (A) (A) (A)
                 (A) (A) (A) (A) (A) (A) (A) (A) (A) (A) (A) (A)
                 (A) (A) (A) (A) (A) (A) (A) (A) (A) (A) (A) (A)
                 (A) (A) (A) (A) (A) (A) (A) (A) (A) (A) (A) (A)
                 (A) (A) (A) (A) (A) (A) (A) (A) (A) (A) (A) (A)
                 (A) (A) (A) (A) (A) (A) (A) (A) (A) (A) (A) (A)
                 (A) (A) (A) (A) (A) (A) (A) (A) (A) (A) (A) (A)
                 (A) (A) (A) (A) (A) (A) (A) (A) (A) (A) (A) (A)
                 (A) (A) (A) (A) (A) (A) (A) (A) (A) (A) (A) (A)
                 (A) (A) (A) (A) (A) (A) (A) (A) (A) (A) (A) (A)
                 (A) (A) (A) (A) (A) (A) (A) (A) (A) (A) (A) (A)
                 (A) (A) (A) (A) (A) (A) (A) (A) (A) (A) (A) (A)
                 (A) (A) (A) (A) (A) (A) (A) (A) (A) (A) (A)
 Initial guess <Sx>= 0.0000 <Sy>= 0.0000 <Sz>= 0.5000 <S**2>= 1.2409 S= 0.7210
 Requested convergence on RMS density matrix=1.00D-08 within 128 cycles.
 Requested convergence on MAX density matrix=1.00D-06.
 Requested convergence on             energy=1.00D-06.
 No special actions if energy rises.
 SCF Done:  E(UHF) =  -269.163373782     A.U. after   14 cycles
             Convg  =    0.8141D-08             -V/T =  2.0003
 <Sx>= 0.0000 <Sy>= 0.0000 <Sz>= 0.5000 <S**2>= 1.2410 S= 0.7211
 <L.S>= 0.000000000000E+00
 Annihilation of the first spin contaminant:
 S**2 before annihilation     1.2410,   after     0.9417
 Calling FoFJK, ICntrl=      2127 FMM=F ISym2X=0 I1Cent= 0 IOpClX= 1 NMat=1 NMatS=1 NMatT=0.
 ***** Axes restored to original set *****
 -------------------------------------------------------------------
 Center     Atomic                   Forces (Hartrees/Bohr)
 Number     Number              X              Y              Z
 -------------------------------------------------------------------
      1        6          -0.000122797   -0.000000211   -0.000035271
      2        6           0.000224514    0.000126238    0.000118848
      3        6          -0.000049674   -0.000351119   -0.000202300
      4        6           0.000031781    0.000103125   -0.000021505
      5        6          -0.000117486    0.000285958    0.000061719
      6        6          -0.000117734   -0.000153219    0.000132380
      7        6           0.000143469   -0.000019908   -0.000093806
      8        1          -0.000000490   -0.000021957    0.000011896
      9        1           0.000004837   -0.000017954   -0.000000784
     10        1           0.000012372    0.000013255    0.000002144
     11        1          -0.000014040    0.000010003   -0.000014378
     12        1           0.000018603   -0.000026108    0.000063918
     13        1          -0.000010736    0.000010888   -0.000031164
     14        1          -0.000002619    0.000041010    0.000008303
 -------------------------------------------------------------------
 Cartesian Forces:  Max     0.000351119 RMS     0.000105727

 GradGradGradGradGradGradGradGradGradGradGradGradGradGradGradGradGradGrad
 Berny optimization.
 Using GEDIIS/GDIIS optimizer.
 Internal  Forces:  Max     0.000250887 RMS     0.000048023
 Search for a local minimum.
 Step number  10 out of a maximum of   73
 All quantities printed in internal units (Hartrees-Bohrs-Radians)
 Mixed Optimization -- En-DIIS/RFO-DIIS
 Swaping is turned off.
 Update second derivatives using D2CorX and points    7    8    9   10
 DE= -1.98D-06 DEPred=-2.01D-06 R= 9.83D-01
 SS=  1.41D+00  RLast= 1.54D-02 DXNew= 2.5003D+00 4.6208D-02
 Trust test= 9.83D-01 RLast= 1.54D-02 DXMaxT set to 1.49D+00
     Eigenvalues ---    0.00573   0.01328   0.01534   0.01887   0.02017
     Eigenvalues ---    0.02120   0.02158   0.02190   0.02367   0.02529
     Eigenvalues ---    0.02778   0.15473   0.15845   0.15998   0.16000
     Eigenvalues ---    0.16036   0.16087   0.16159   0.21634   0.21901
     Eigenvalues ---    0.22021   0.22071   0.27982   0.31766   0.33101
     Eigenvalues ---    0.33105   0.33117   0.33341   0.33420   0.36146
     Eigenvalues ---    0.37970   0.39528   0.41269   0.44663   0.55062
     Eigenvalues ---    0.564081000.000001000.000001000.000001000.00000
     Eigenvalues --- 1000.000001000.000001000.000001000.000001000.00000
     Eigenvalues --- 1000.000001000.000001000.000001000.000001000.00000
     Eigenvalues --- 1000.000001000.000001000.000001000.000001000.00000
     Eigenvalues --- 1000.000001000.000001000.000001000.000001000.00000
     Eigenvalues --- 1000.000001000.000001000.00000
 En-DIIS/RFO-DIIS IScMMF=        0 using points:    10    9    8    7
 RFO step:  Lambda=-2.98861301D-07.
 DIIS coeffs:      1.03986      0.01600     -0.09528      0.03942
 Iteration  1 RMS(Cart)=  0.00042393 RMS(Int)=  0.00000406
 Iteration  2 RMS(Cart)=  0.00000021 RMS(Int)=  0.00000406
 Variable       Old X    -DE/DX   Delta X   Delta X   Delta X     New X
                                  (DIIS)     (GDIIS)  (Total)
    R1        2.55442   0.00014  -0.00013   0.00053   0.00040   2.55482
    R2        2.80523   0.00003  -0.00009   0.00010   0.00001   2.80524
    R3        2.03378   0.00002   0.00007   0.00001   0.00008   2.03386
    R4        2.71266  -0.00017   0.00006  -0.00057  -0.00052   2.71214
    R5        2.03659   0.00002   0.00004   0.00003   0.00007   2.03666
    R6        2.64137   0.00025   0.00006   0.00060   0.00066   2.64203
    R7        2.03347   0.00001   0.00002   0.00002   0.00004   2.03351
    R8        2.55595  -0.00008   0.00014  -0.00036  -0.00022   2.55573
    R9        2.03375   0.00001   0.00004   0.00002   0.00006   2.03380
   R10        2.64314  -0.00006  -0.00021  -0.00012  -0.00033   2.64280
   R11        2.03662   0.00001   0.00006   0.00001   0.00007   2.03670
   R12        2.71083   0.00010  -0.00022   0.00057   0.00035   2.71118
   R13        2.03664   0.00001   0.00006  -0.00001   0.00005   2.03669
   R14        2.03338   0.00004   0.00005   0.00007   0.00013   2.03350
    A1        2.23660   0.00000   0.00008  -0.00008   0.00000   2.23661
    A2        2.04260  -0.00001  -0.00013   0.00006  -0.00007   2.04253
    A3        2.00398   0.00001   0.00005   0.00003   0.00007   2.00405
    A4        2.25525   0.00000  -0.00007   0.00010   0.00005   2.25529
    A5        2.02451  -0.00001   0.00013  -0.00016  -0.00004   2.02447
    A6        2.00343   0.00000  -0.00006   0.00006  -0.00001   2.00342
    A7        2.23436  -0.00001  -0.00008  -0.00001  -0.00007   2.23429
    A8        2.01901   0.00002  -0.00006   0.00023   0.00018   2.01919
    A9        2.02982  -0.00001   0.00012  -0.00023  -0.00010   2.02971
   A10        2.23633   0.00002  -0.00006   0.00007   0.00002   2.23635
   A11        2.00424   0.00000   0.00012  -0.00007   0.00005   2.00429
   A12        2.04261  -0.00002  -0.00006   0.00000  -0.00007   2.04255
   A13        2.25575  -0.00001   0.00008  -0.00008  -0.00001   2.25575
   A14        2.01397  -0.00001  -0.00006  -0.00013  -0.00019   2.01379
   A15        2.01346   0.00002  -0.00002   0.00021   0.00019   2.01365
   A16        2.25539  -0.00001  -0.00001  -0.00003  -0.00003   2.25535
   A17        2.02415   0.00000   0.00001  -0.00001   0.00000   2.02414
   A18        2.00365   0.00001   0.00000   0.00004   0.00004   2.00369
   A19        2.23428   0.00001   0.00001   0.00003   0.00005   2.23432
   A20        2.02941   0.00000   0.00002   0.00002   0.00004   2.02945
   A21        2.01950  -0.00001  -0.00003  -0.00005  -0.00008   2.01942
    D1        0.00003  -0.00002  -0.00061  -0.00067  -0.00128  -0.00125
    D2        3.14147  -0.00001  -0.00036  -0.00047  -0.00082   3.14065
    D3        3.14103  -0.00001  -0.00029  -0.00003  -0.00033   3.14070
    D4       -0.00071   0.00000  -0.00005   0.00017   0.00013  -0.00059
    D5        0.00329  -0.00001  -0.00060   0.00018  -0.00042   0.00288
    D6       -3.13917   0.00000  -0.00013   0.00041   0.00028  -3.13889
    D7       -3.13772  -0.00002  -0.00090  -0.00045  -0.00135  -3.13906
    D8        0.00300  -0.00001  -0.00044  -0.00021  -0.00065   0.00235
    D9       -0.00335   0.00003   0.00107   0.00064   0.00171  -0.00164
   D10        3.14052   0.00000   0.00065   0.00009   0.00074   3.14126
   D11        3.13838   0.00002   0.00082   0.00044   0.00126   3.13964
   D12       -0.00093  -0.00001   0.00040  -0.00011   0.00029  -0.00064
   D13        0.00271  -0.00002  -0.00028  -0.00062  -0.00089   0.00182
   D14       -3.13822  -0.00004  -0.00105  -0.00047  -0.00152  -3.13974
   D15       -3.14117   0.00001   0.00015  -0.00006   0.00008  -3.14109
   D16        0.00108  -0.00002  -0.00062   0.00008  -0.00054   0.00054
   D17       -0.00258   0.00003   0.00090   0.00066   0.00157  -0.00102
   D18        3.14089  -0.00001   0.00036  -0.00030   0.00006   3.14095
   D19        3.13990   0.00002   0.00044   0.00042   0.00086   3.14076
   D20        0.00019  -0.00001  -0.00010  -0.00054  -0.00065  -0.00046
   D21        0.00001   0.00001  -0.00041   0.00092   0.00051   0.00052
   D22        3.14152   0.00000  -0.00024   0.00054   0.00030  -3.14137
   D23        3.14094   0.00004   0.00036   0.00077   0.00113  -3.14111
   D24       -0.00074   0.00003   0.00054   0.00039   0.00093   0.00019
   D25       -0.00006  -0.00003  -0.00009  -0.00111  -0.00120  -0.00126
   D26       -3.14157  -0.00001  -0.00026  -0.00073  -0.00099   3.14062
   D27        3.13967   0.00001   0.00045  -0.00016   0.00029   3.13996
   D28       -0.00184   0.00003   0.00028   0.00022   0.00050  -0.00134
         Item               Value     Threshold  Converged?
 Maximum Force            0.000251     0.000450     YES
 RMS     Force            0.000048     0.000300     YES
 Maximum Displacement     0.001716     0.001800     YES
 RMS     Displacement     0.000424     0.001200     YES
 Predicted change in Energy=-4.109157D-07
 Optimization completed.
    -- Stationary point found.
                           ----------------------------
                           !   Optimized Parameters   !
                           ! (Angstroms and Degrees)  !
 --------------------------                            --------------------------
 ! Name  Definition              Value          Derivative Info.                !
 --------------------------------------------------------------------------------
 ! R1    R(1,2)                  1.3517         -DE/DX =    0.0001              !
 ! R2    R(1,4)                  1.4845         -DE/DX =    0.0                 !
 ! R3    R(1,8)                  1.0762         -DE/DX =    0.0                 !
 ! R4    R(2,3)                  1.4355         -DE/DX =   -0.0002              !
 ! R5    R(2,9)                  1.0777         -DE/DX =    0.0                 !
 ! R6    R(3,5)                  1.3978         -DE/DX =    0.0003              !
 ! R7    R(3,10)                 1.0761         -DE/DX =    0.0                 !
 ! R8    R(4,6)                  1.3525         -DE/DX =   -0.0001              !
 ! R9    R(4,11)                 1.0762         -DE/DX =    0.0                 !
 ! R10   R(5,7)                  1.3987         -DE/DX =   -0.0001              !
 ! R11   R(5,12)                 1.0777         -DE/DX =    0.0                 !
 ! R12   R(6,7)                  1.4345         -DE/DX =    0.0001              !
 ! R13   R(6,13)                 1.0777         -DE/DX =    0.0                 !
 ! R14   R(7,14)                 1.076          -DE/DX =    0.0                 !
 ! A1    A(2,1,4)              128.148          -DE/DX =    0.0                 !
 ! A2    A(2,1,8)              117.0322         -DE/DX =    0.0                 !
 ! A3    A(4,1,8)              114.8198         -DE/DX =    0.0                 !
 ! A4    A(1,2,3)              129.2162         -DE/DX =    0.0                 !
 ! A5    A(1,2,9)              115.9957         -DE/DX =    0.0                 !
 ! A6    A(3,2,9)              114.7881         -DE/DX =    0.0                 !
 ! A7    A(2,3,5)              128.0193         -DE/DX =    0.0                 !
 ! A8    A(2,3,10)             115.6807         -DE/DX =    0.0                 !
 ! A9    A(5,3,10)             116.2999         -DE/DX =    0.0                 !
 ! A10   A(1,4,6)              128.1322         -DE/DX =    0.0                 !
 ! A11   A(1,4,11)             114.8346         -DE/DX =    0.0                 !
 ! A12   A(6,4,11)             117.0332         -DE/DX =    0.0                 !
 ! A13   A(3,5,7)              129.2452         -DE/DX =    0.0                 !
 ! A14   A(3,5,12)             115.3921         -DE/DX =    0.0                 !
 ! A15   A(7,5,12)             115.3627         -DE/DX =    0.0                 !
 ! A16   A(4,6,7)              129.2241         -DE/DX =    0.0                 !
 ! A17   A(4,6,13)             115.9752         -DE/DX =    0.0                 !
 ! A18   A(7,6,13)             114.8006         -DE/DX =    0.0                 !
 ! A19   A(5,7,6)              128.0146         -DE/DX =    0.0                 !
 ! A20   A(5,7,14)             116.2765         -DE/DX =    0.0                 !
 ! A21   A(6,7,14)             115.7089         -DE/DX =    0.0                 !
 ! D1    D(4,1,2,3)              0.0015         -DE/DX =    0.0                 !
 ! D2    D(4,1,2,9)            179.9932         -DE/DX =    0.0                 !
 ! D3    D(8,1,2,3)            179.9675         -DE/DX =    0.0                 !
 ! D4    D(8,1,2,9)             -0.0408         -DE/DX =    0.0                 !
 ! D5    D(2,1,4,6)              0.1888         -DE/DX =    0.0                 !
 ! D6    D(2,1,4,11)          -179.8613         -DE/DX =    0.0                 !
 ! D7    D(8,1,4,6)           -179.7779         -DE/DX =    0.0                 !
 ! D8    D(8,1,4,11)             0.1721         -DE/DX =    0.0                 !
 ! D9    D(1,2,3,5)             -0.1922         -DE/DX =    0.0                 !
 ! D10   D(1,2,3,10)           179.9386         -DE/DX =    0.0                 !
 ! D11   D(9,2,3,5)            179.8161         -DE/DX =    0.0                 !
 ! D12   D(9,2,3,10)            -0.0531         -DE/DX =    0.0                 !
 ! D13   D(2,3,5,7)              0.1555         -DE/DX =    0.0                 !
 ! D14   D(2,3,5,12)          -179.8065         -DE/DX =    0.0                 !
 ! D15   D(10,3,5,7)          -179.9759         -DE/DX =    0.0                 !
 ! D16   D(10,3,5,12)            0.0621         -DE/DX =    0.0                 !
 ! D17   D(1,4,6,7)             -0.148          -DE/DX =    0.0                 !
 ! D18   D(1,4,6,13)           179.9597         -DE/DX =    0.0                 !
 ! D19   D(11,4,6,7)           179.903          -DE/DX =    0.0                 !
 ! D20   D(11,4,6,13)            0.0107         -DE/DX =    0.0                 !
 ! D21   D(3,5,7,6)              0.0007         -DE/DX =    0.0                 !
 ! D22   D(3,5,7,14)          -180.0043         -DE/DX =    0.0                 !
 ! D23   D(12,5,7,6)          -180.0372         -DE/DX =    0.0                 !
 ! D24   D(12,5,7,14)           -0.0423         -DE/DX =    0.0                 !
 ! D25   D(4,6,7,5)             -0.0037         -DE/DX =    0.0                 !
 ! D26   D(4,6,7,14)           180.0013         -DE/DX =    0.0                 !
 ! D27   D(13,6,7,5)           179.8898         -DE/DX =    0.0                 !
 ! D28   D(13,6,7,14)           -0.1053         -DE/DX =    0.0                 !
 --------------------------------------------------------------------------------
 GradGradGradGradGradGradGradGradGradGradGradGradGradGradGradGradGradGrad

                          Input orientation:                          
 ---------------------------------------------------------------------
 Center     Atomic      Atomic             Coordinates (Angstroms)
 Number     Number       Type             X           Y           Z
 ---------------------------------------------------------------------
      1          6           0       -2.913196   -0.265287   -0.164639
      2          6           0       -1.561493   -0.255870   -0.160936
      3          6           0       -0.662245    0.811758    0.173901
      4          6           0       -3.838833    0.842365    0.181680
      5          6           0       -0.981235    2.111584    0.576901
      6          6           0       -3.527867    2.099533    0.571833
      7          6           0       -2.237797    2.698507    0.758284
      8          1           0       -3.395161   -1.183352   -0.452975
      9          1           0       -1.081905   -1.177013   -0.448981
     10          1           0        0.385783    0.578401    0.102498
     11          1           0       -4.884241    0.597866    0.107014
     12          1           0       -0.138778    2.753621    0.775811
     13          1           0       -4.362259    2.750621    0.775309
     14          1           0       -2.241991    3.726194    1.077116
 ---------------------------------------------------------------------
                    Distance matrix (angstroms):
                    1          2          3          4          5
     1  C    0.000000
     2  C    1.351740   0.000000
     3  C    2.518216   1.435476   0.000000
     4  C    1.484464   2.551427   3.176744   0.000000
     5  C    3.151487   2.546751   1.397752   3.151664   0.000000
     6  C    2.551977   3.154599   3.166780   1.352550   2.546665
     7  C    3.176795   3.167127   2.526596   2.518144   1.398687
     8  H    1.076230   2.075536   3.441260   2.168677   4.212398
     9  H    2.065361   1.077719   2.125866   3.475092   3.446366
    10  H    3.415616   2.134782   1.076066   4.233595   2.108185
    11  H    2.168835   3.441121   4.227939   1.076212   4.212552
    12  H    4.206620   3.458129   2.099321   4.206697   1.077734
    13  H    3.475484   4.214242   4.220306   2.065869   3.446601
    14  H    4.233721   4.225243   3.435888   3.415871   2.108717
                    6          7          8          9         10
     6  C    0.000000
     7  C    1.434508   0.000000
     8  H    3.441682   4.227939   0.000000
     9  H    4.214325   4.220571   2.313268   0.000000
    10  H    4.225017   3.436288   4.208072   2.353660   0.000000
    11  H    2.076249   3.441004   2.388239   4.232857   5.270062
    12  H    3.457653   2.099816   5.254875   4.223682   2.336685
    13  H    1.077743   2.125169   4.233215   5.261741   5.264515
    14  H    2.134200   1.076017   5.270163   5.264618   4.214698
                   11         12         13         14
    11  H    0.000000
    12  H    5.254902   0.000000
    13  H    2.313750   4.223483   0.000000
    14  H    4.208208   2.336705   2.353373   0.000000
 Stoichiometry    C7H7(2)
 Framework group  C1[X(C7H7)]
 Deg. of freedom    36
 Full point group                 C1      NOp   1
 Largest Abelian subgroup         C1      NOp   1
 Largest concise Abelian subgroup C1      NOp   1
                         Standard orientation:                         
 ---------------------------------------------------------------------
 Center     Atomic      Atomic             Coordinates (Angstroms)
 Number     Number       Type             X           Y           Z
 ---------------------------------------------------------------------
      1          6           0        0.752661   -1.440024   -0.000699
      2          6           0        1.579924   -0.370988   -0.000524
      3          6           0        1.255802    1.027416    0.001448
      4          6           0       -0.731763   -1.450747    0.001097
      5          6           0       -0.011302    1.617464   -0.000013
      6          6           0       -1.574599   -0.392911   -0.000211
      7          6           0       -1.270726    1.009043   -0.000771
      8          1           0        1.211468   -2.413555   -0.002904
      9          1           0        2.635104   -0.590243   -0.001936
     10          1           0        2.095240    1.700663    0.002203
     11          1           0       -1.176703   -2.430674    0.002919
     12          1           0       -0.019244    2.695169   -0.001291
     13          1           0       -2.626504   -0.627480    0.000877
     14          1           0       -2.119348    1.670595   -0.001832
 ---------------------------------------------------------------------
 Rotational constants (GHZ):      3.7284941      3.6886353      1.8542300

 **********************************************************************

            Population analysis using the SCF density.

 **********************************************************************

 Orbital symmetries:
 Alpha Orbitals:
       Occupied  (A) (A) (A) (A) (A) (A) (A) (A) (A) (A) (A) (A)
                 (A) (A) (A) (A) (A) (A) (A) (A) (A) (A) (A) (A)
                 (A)
       Virtual   (A) (A) (A) (A) (A) (A) (A) (A) (A) (A) (A) (A)
                 (A) (A) (A) (A) (A) (A) (A) (A) (A) (A) (A) (A)
                 (A) (A) (A) (A) (A) (A) (A) (A) (A) (A) (A) (A)
                 (A) (A) (A) (A) (A) (A) (A) (A) (A) (A) (A) (A)
                 (A) (A) (A) (A) (A) (A) (A) (A) (A) (A) (A) (A)
                 (A) (A) (A) (A) (A) (A) (A) (A) (A) (A) (A) (A)
                 (A) (A) (A) (A) (A) (A) (A) (A) (A) (A) (A) (A)
                 (A) (A) (A) (A) (A) (A) (A) (A) (A) (A) (A) (A)
                 (A) (A) (A) (A) (A) (A) (A) (A) (A) (A) (A) (A)
                 (A) (A) (A) (A) (A) (A) (A) (A) (A) (A) (A) (A)
                 (A) (A) (A) (A) (A) (A) (A) (A) (A) (A) (A) (A)
                 (A) (A) (A) (A) (A) (A) (A) (A) (A) (A) (A) (A)
                 (A) (A) (A) (A) (A) (A) (A) (A) (A) (A) (A) (A)
                 (A) (A) (A) (A) (A) (A) (A) (A) (A) (A) (A) (A)
                 (A) (A) (A) (A) (A) (A) (A) (A) (A) (A)
 Beta  Orbitals:
       Occupied  (A) (A) (A) (A) (A) (A) (A) (A) (A) (A) (A) (A)
                 (A) (A) (A) (A) (A) (A) (A) (A) (A) (A) (A) (A)
       Virtual   (A) (A) (A) (A) (A) (A) (A) (A) (A) (A) (A) (A)
                 (A) (A) (A) (A) (A) (A) (A) (A) (A) (A) (A) (A)
                 (A) (A) (A) (A) (A) (A) (A) (A) (A) (A) (A) (A)
                 (A) (A) (A) (A) (A) (A) (A) (A) (A) (A) (A) (A)
                 (A) (A) (A) (A) (A) (A) (A) (A) (A) (A) (A) (A)
                 (A) (A) (A) (A) (A) (A) (A) (A) (A) (A) (A) (A)
                 (A) (A) (A) (A) (A) (A) (A) (A) (A) (A) (A) (A)
                 (A) (A) (A) (A) (A) (A) (A) (A) (A) (A) (A) (A)
                 (A) (A) (A) (A) (A) (A) (A) (A) (A) (A) (A) (A)
                 (A) (A) (A) (A) (A) (A) (A) (A) (A) (A) (A) (A)
                 (A) (A) (A) (A) (A) (A) (A) (A) (A) (A) (A) (A)
                 (A) (A) (A) (A) (A) (A) (A) (A) (A) (A) (A) (A)
                 (A) (A) (A) (A) (A) (A) (A) (A) (A) (A) (A) (A)
                 (A) (A) (A) (A) (A) (A) (A) (A) (A) (A) (A) (A)
                 (A) (A) (A) (A) (A) (A) (A) (A) (A) (A) (A)
 The electronic state is 2-A.
 Alpha  occ. eigenvalues --  -11.24047 -11.23975 -11.23842 -11.23836 -11.23267
 Alpha  occ. eigenvalues --  -11.23262 -11.23123  -1.13498  -1.05156  -1.05150
 Alpha  occ. eigenvalues --   -0.92149  -0.86999  -0.72006  -0.71843  -0.70225
 Alpha  occ. eigenvalues --   -0.61666  -0.61405  -0.54971  -0.54784  -0.51862
 Alpha  occ. eigenvalues --   -0.50804  -0.48010  -0.42193  -0.41367  -0.25826
 Alpha virt. eigenvalues --    0.04241   0.04856   0.04867   0.06451   0.06462
 Alpha virt. eigenvalues --    0.08634   0.09010   0.09016   0.12798   0.14794
 Alpha virt. eigenvalues --    0.14818   0.15226   0.17972   0.17980   0.18181
 Alpha virt. eigenvalues --    0.18195   0.18264   0.19394   0.19487   0.19724
 Alpha virt. eigenvalues --    0.19869   0.20068   0.20672   0.22113   0.22159
 Alpha virt. eigenvalues --    0.23106   0.23151   0.23999   0.24091   0.28078
 Alpha virt. eigenvalues --    0.28548   0.29333   0.29334   0.30214   0.30819
 Alpha virt. eigenvalues --    0.31712   0.32998   0.33004   0.34357   0.39297
 Alpha virt. eigenvalues --    0.39683   0.41758   0.44271   0.44540   0.45023
 Alpha virt. eigenvalues --    0.45394   0.47073   0.56118   0.56711   0.57839
 Alpha virt. eigenvalues --    0.57873   0.60018   0.68933   0.71016   0.72081
 Alpha virt. eigenvalues --    0.73744   0.73796   0.74986   0.75006   0.75060
 Alpha virt. eigenvalues --    0.75284   0.77064   0.78102   0.82772   0.83652
 Alpha virt. eigenvalues --    0.86919   0.87589   0.89756   0.92561   0.95034
 Alpha virt. eigenvalues --    0.95680   0.96781   1.00362   1.00768   1.02629
 Alpha virt. eigenvalues --    1.02704   1.03013   1.03111   1.07789   1.08491
 Alpha virt. eigenvalues --    1.13612   1.14279   1.17559   1.17834   1.21779
 Alpha virt. eigenvalues --    1.23009   1.26591   1.27282   1.28076   1.28549
 Alpha virt. eigenvalues --    1.35120   1.35286   1.39476   1.40586   1.63885
 Alpha virt. eigenvalues --    1.71323   1.71329   1.75107   1.75746   1.79378
 Alpha virt. eigenvalues --    1.79684   1.79759   1.88315   1.89777   1.92471
 Alpha virt. eigenvalues --    1.93198   1.94867   1.96565   2.01114   2.01602
 Alpha virt. eigenvalues --    2.01936   2.04124   2.04274   2.19932   2.19946
 Alpha virt. eigenvalues --    2.20159   2.21862   2.22140   2.24356   2.24481
 Alpha virt. eigenvalues --    2.28249   2.28384   2.33305   2.33924   2.34722
 Alpha virt. eigenvalues --    2.39107   2.53109   2.53608   2.73862   2.73959
 Alpha virt. eigenvalues --    2.75281   2.77863   2.78043   2.78278   2.93362
 Alpha virt. eigenvalues --    2.93487   2.97103   2.97999   2.98598   2.98953
 Alpha virt. eigenvalues --    3.00210   3.02910   3.03145   3.03963   3.05656
 Alpha virt. eigenvalues --    3.05854   3.07092   3.08698   3.18964   3.19013
 Alpha virt. eigenvalues --    3.24466   3.28044   3.33488   3.37925   3.38512
 Alpha virt. eigenvalues --    3.60464   3.64034   3.71162   3.71413   3.76903
 Alpha virt. eigenvalues --    3.85668   3.86441   3.94681   3.96430   4.37338
 Alpha virt. eigenvalues --    4.38553   4.44022   4.44546   4.65696   4.66217
 Alpha virt. eigenvalues --    5.28400  24.75548  24.98285  25.04427  25.16302
 Alpha virt. eigenvalues --   25.29774  25.38377  25.39167
  Beta  occ. eigenvalues --  -11.24604 -11.24288 -11.24281 -11.22893 -11.22821
  Beta  occ. eigenvalues --  -11.22113 -11.22108  -1.12087  -1.04299  -1.03424
  Beta  occ. eigenvalues --   -0.87606  -0.87568  -0.71089  -0.71066  -0.69934
  Beta  occ. eigenvalues --   -0.61538  -0.61062  -0.54563  -0.54373  -0.50199
  Beta  occ. eigenvalues --   -0.47840  -0.47239  -0.37369  -0.36115
  Beta virt. eigenvalues --    0.04258   0.04875   0.04876   0.06293   0.06453
  Beta virt. eigenvalues --    0.06484   0.09022   0.09023   0.09195   0.12993
  Beta virt. eigenvalues --    0.15224   0.15330   0.15450   0.17989   0.17996
  Beta virt. eigenvalues --    0.18255   0.18296   0.19436   0.19591   0.19830
  Beta virt. eigenvalues --    0.19931   0.20534   0.20539   0.20983   0.22271
  Beta virt. eigenvalues --    0.22373   0.23183   0.23199   0.24057   0.24066
  Beta virt. eigenvalues --    0.28435   0.28600   0.29333   0.29335   0.30891
  Beta virt. eigenvalues --    0.33068   0.33072   0.34356   0.34502   0.35491
  Beta virt. eigenvalues --    0.39550   0.39796   0.43407   0.44808   0.44951
  Beta virt. eigenvalues --    0.44966   0.45896   0.46854   0.56576   0.56932
  Beta virt. eigenvalues --    0.57845   0.58130   0.60441   0.70569   0.73072
  Beta virt. eigenvalues --    0.73238   0.73861   0.73946   0.74432   0.75996
  Beta virt. eigenvalues --    0.76067   0.76336   0.77695   0.82158   0.83525
  Beta virt. eigenvalues --    0.83852   0.88694   0.89155   0.90275   0.92684
  Beta virt. eigenvalues --    0.95058   0.95730   0.97137   1.00907   1.01116
  Beta virt. eigenvalues --    1.02530   1.02729   1.03708   1.03803   1.08024
  Beta virt. eigenvalues --    1.08895   1.13904   1.14594   1.18054   1.19081
  Beta virt. eigenvalues --    1.22898   1.23056   1.27681   1.28138   1.29931
  Beta virt. eigenvalues --    1.30954   1.35653   1.35811   1.40895   1.41733
  Beta virt. eigenvalues --    1.65337   1.71614   1.72039   1.75572   1.75996
  Beta virt. eigenvalues --    1.79878   1.80146   1.80179   1.88893   1.92115
  Beta virt. eigenvalues --    1.93649   1.94002   1.95703   1.96009   2.01690
  Beta virt. eigenvalues --    2.01718   2.01930   2.04327   2.04736   2.19926
  Beta virt. eigenvalues --    2.19962   2.22332   2.22529   2.22656   2.24132
  Beta virt. eigenvalues --    2.24451   2.28483   2.28782   2.34768   2.35145
  Beta virt. eigenvalues --    2.35718   2.39253   2.54113   2.54183   2.73651
  Beta virt. eigenvalues --    2.75091   2.75880   2.77882   2.78167   2.78254
  Beta virt. eigenvalues --    2.93602   2.93741   2.97194   2.98227   2.98728
  Beta virt. eigenvalues --    2.98986   3.00194   3.03157   3.04091   3.04620
  Beta virt. eigenvalues --    3.05828   3.05971   3.07436   3.08605   3.19728
  Beta virt. eigenvalues --    3.20036   3.27433   3.28904   3.33668   3.39242
  Beta virt. eigenvalues --    3.39548   3.61007   3.64227   3.71289   3.71715
  Beta virt. eigenvalues --    3.77318   3.85484   3.86738   3.94933   3.96648
  Beta virt. eigenvalues --    4.38236   4.38478   4.44439   4.44770   4.66271
  Beta virt. eigenvalues --    4.66625   5.28922  24.75731  24.98421  25.04476
  Beta virt. eigenvalues --   25.17434  25.29802  25.38389  25.39132
          Condensed to atoms (all electrons):
              1          2          3          4          5          6
     1  C    6.734919  -0.785979   0.845503  -1.089233  -0.356451   0.835737
     2  C   -0.785979   6.728998  -1.149465   0.835143   0.948321  -0.292532
     3  C    0.845503  -1.149465   6.981741  -0.315242  -1.002464  -0.402512
     4  C   -1.089233   0.835143  -0.315242   6.735868  -0.356066  -0.786701
     5  C   -0.356451   0.948321  -1.002464  -0.356066   6.684504   0.948313
     6  C    0.835737  -0.292532  -0.402512  -0.786701   0.948313   6.728387
     7  C   -0.315414  -0.402349   0.909213   0.845204  -1.004572  -1.148583
     8  H    0.446257  -0.077894   0.030113  -0.089464  -0.009227   0.029008
     9  H   -0.083611   0.464627  -0.106396   0.031002   0.038659  -0.006450
    10  H    0.027348  -0.087953   0.447758  -0.010666  -0.076764  -0.009434
    11  H   -0.089347   0.028933  -0.010864   0.446035  -0.009202  -0.077776
    12  H   -0.012569   0.039677  -0.100900  -0.012619   0.465197   0.039721
    13  H    0.031078  -0.006482  -0.015800  -0.083771   0.038721   0.464726
    14  H   -0.010625  -0.009464   0.027733   0.027313  -0.076915  -0.087784
              7          8          9         10         11         12
     1  C   -0.315414   0.446257  -0.083611   0.027348  -0.089347  -0.012569
     2  C   -0.402349  -0.077894   0.464627  -0.087953   0.028933   0.039677
     3  C    0.909213   0.030113  -0.106396   0.447758  -0.010864  -0.100900
     4  C    0.845204  -0.089464   0.031002  -0.010666   0.446035  -0.012619
     5  C   -1.004572  -0.009227   0.038659  -0.076764  -0.009202   0.465197
     6  C   -1.148583   0.029008  -0.006450  -0.009434  -0.077776   0.039721
     7  C    6.983352  -0.010873  -0.015785   0.027752   0.030051  -0.101174
     8  H   -0.010873   0.484824  -0.001846   0.000915   0.003235  -0.000088
     9  H   -0.015785  -0.001846   0.491877   0.001204   0.000900   0.001517
    10  H    0.027752   0.000915   0.001204   0.485834  -0.000192  -0.000211
    11  H    0.030051   0.003235   0.000900  -0.000192   0.484772  -0.000090
    12  H   -0.101174  -0.000088   0.001517  -0.000211  -0.000090   0.494466
    13  H   -0.106491   0.000904   0.000122  -0.000163  -0.001819   0.001523
    14  H    0.447813  -0.000190  -0.000164   0.000784   0.000912  -0.000187
             13         14
     1  C    0.031078  -0.010625
     2  C   -0.006482  -0.009464
     3  C   -0.015800   0.027733
     4  C   -0.083771   0.027313
     5  C    0.038721  -0.076915
     6  C    0.464726  -0.087784
     7  C   -0.106491   0.447813
     8  H    0.000904  -0.000190
     9  H    0.000122  -0.000164
    10  H   -0.000163   0.000784
    11  H   -0.001819   0.000912
    12  H    0.001523  -0.000187
    13  H    0.491984   0.001172
    14  H    0.001172   0.485817
 Mulliken atomic charges:
              1
     1  C   -0.177613
     2  C   -0.233579
     3  C   -0.138417
     4  C   -0.176804
     5  C   -0.232055
     6  C   -0.234120
     7  C   -0.138143
     8  H    0.194328
     9  H    0.184344
    10  H    0.193786
    11  H    0.194452
    12  H    0.185737
    13  H    0.184299
    14  H    0.193784
 Sum of Mulliken atomic charges =   0.00000
 Mulliken charges with hydrogens summed into heavy atoms:
              1
     1  C    0.016715
     2  C   -0.049235
     3  C    0.055370
     4  C    0.017648
     5  C   -0.046318
     6  C   -0.049821
     7  C    0.055642
 Sum of Mulliken charges with hydrogens summed into heavy atoms =   0.00000
          Atomic-Atomic Spin Densities.
              1          2          3          4          5          6
     1  C    0.595313   0.247950  -0.181736   0.010200   0.094975  -0.117734
     2  C    0.247950  -0.872494   0.239428  -0.117841  -0.233303  -0.021125
     3  C   -0.181736   0.239428   0.737775  -0.009386   0.326300   0.143970
     4  C    0.010200  -0.117841  -0.009386   0.604711   0.095322   0.247519
     5  C    0.094975  -0.233303   0.326300   0.095322  -1.263382  -0.233564
     6  C   -0.117734  -0.021125   0.143970   0.247519  -0.233564  -0.880825
     7  C   -0.008964   0.143490  -0.271209  -0.182042   0.325868   0.240679
     8  H   -0.029733   0.025162  -0.010962   0.012449   0.006170   0.001094
     9  H    0.005335  -0.010320   0.018985  -0.000653  -0.012896  -0.006380
    10  H   -0.006237   0.027819  -0.048047   0.000342   0.032065   0.006334
    11  H    0.012503   0.001099  -0.001533  -0.029923   0.006203   0.025273
    12  H    0.001750  -0.009734   0.010832   0.001793  -0.004992  -0.009764
    13  H   -0.000600  -0.006405   0.007768   0.005243  -0.012950  -0.010194
    14  H    0.000347   0.006325  -0.011905  -0.006255   0.032082   0.027898
              7          8          9         10         11         12
     1  C   -0.008964  -0.029733   0.005335  -0.006237   0.012503   0.001750
     2  C    0.143490   0.025162  -0.010320   0.027819   0.001099  -0.009734
     3  C   -0.271209  -0.010962   0.018985  -0.048047  -0.001533   0.010832
     4  C   -0.182042   0.012449  -0.000653   0.000342  -0.029923   0.001793
     5  C    0.325868   0.006170  -0.012896   0.032065   0.006203  -0.004992
     6  C    0.240679   0.001094  -0.006380   0.006334   0.025273  -0.009764
     7  C    0.738839  -0.001520   0.007753  -0.011895  -0.010982   0.010878
     8  H   -0.001520  -0.071527   0.003440  -0.000533   0.001184   0.000119
     9  H    0.007753   0.003440   0.036354   0.002464   0.000347  -0.000302
    10  H   -0.011895  -0.000533   0.002464  -0.092893  -0.000140   0.002269
    11  H   -0.010982   0.001184   0.000347  -0.000140  -0.072225   0.000120
    12  H    0.010878   0.000119  -0.000302   0.002269   0.000120   0.066058
    13  H    0.018947   0.000350  -0.000229   0.000163   0.003428  -0.000304
    14  H   -0.048122  -0.000140   0.000162  -0.000710  -0.000536   0.002267
             13         14
     1  C   -0.000600   0.000347
     2  C   -0.006405   0.006325
     3  C    0.007768  -0.011905
     4  C    0.005243  -0.006255
     5  C   -0.012950   0.032082
     6  C   -0.010194   0.027898
     7  C    0.018947  -0.048122
     8  H    0.000350  -0.000140
     9  H   -0.000229   0.000162
    10  H    0.000163  -0.000710
    11  H    0.003428  -0.000536
    12  H   -0.000304   0.002267
    13  H    0.037025   0.002467
    14  H    0.002467  -0.092992
 Mulliken atomic spin densities:
              1
     1  C    0.623370
     2  C   -0.579950
     3  C    0.950281
     4  C    0.631480
     5  C   -0.842101
     6  C   -0.586818
     7  C    0.951720
     8  H   -0.064446
     9  H    0.044059
    10  H   -0.089000
    11  H   -0.065182
    12  H    0.070990
    13  H    0.044710
    14  H   -0.089113
 Sum of Mulliken atomic spin densities =   1.00000
 Electronic spatial extent (au):  <R**2>=            668.2630
 Charge=              0.0000 electrons
 Dipole moment (field-independent basis, Debye):
    X=             -0.0013    Y=              0.0498    Z=             -0.0016  Tot=              0.0499
 Quadrupole moment (field-independent basis, Debye-Ang):
   XX=            -37.6844   YY=            -37.4629   ZZ=            -47.5997
   XY=             -0.0006   XZ=             -0.0050   YZ=             -0.0031
 Traceless Quadrupole moment (field-independent basis, Debye-Ang):
   XX=              3.2312   YY=              3.4528   ZZ=             -6.6840
   XY=             -0.0006   XZ=             -0.0050   YZ=             -0.0031
 Octapole moment (field-independent basis, Debye-Ang**2):
  XXX=             -0.0121  YYY=             -0.3480  ZZZ=             -0.0024  XYY=              0.0060
  XXY=              0.6975  XXZ=             -0.0057  XZZ=             -0.0053  YZZ=              0.2517
  YYZ=             -0.0100  XYZ=              0.0229
 Hexadecapole moment (field-independent basis, Debye-Ang**3):
 XXXX=           -404.2964 YYYY=           -399.8735 ZZZZ=            -58.5258 XXXY=              0.0857
 XXXZ=             -0.0349 YYYX=             -0.0910 YYYZ=             -0.0308 ZZZX=             -0.0046
 ZZZY=             -0.0060 XXYY=           -137.4426 XXZZ=            -94.9279 YYZZ=            -93.7204
 XXYZ=              0.0035 YYXZ=             -0.0232 ZZXY=              0.0003
 N-N= 2.578272062521D+02 E-N=-1.705832287531D+03  KE= 4.029474786286D+02
                          Isotropic Fermi Contact Couplings
        Atom                 a.u.       MegaHertz       Gauss      10(-4) cm-1
     1  C(13)              0.05463      61.41747      21.91528      20.48666
     2  C(13)             -0.09660    -108.60213     -38.75194     -36.22577
     3  C(13)              0.12608     141.74114      50.57676      47.27975
     4  C(13)              0.05590      62.83932      22.42263      20.96094
     5  C(13)             -0.12723    -143.03532     -51.03856     -47.71145
     6  C(13)             -0.09747    -109.56980     -39.09723     -36.54855
     7  C(13)              0.12640     142.09971      50.70471      47.39936
     8  H(1)              -0.01366     -61.07184     -21.79195     -20.37137
     9  H(1)               0.00914      40.86269      14.58082      13.63033
    10  H(1)              -0.01856     -82.94026     -29.59515     -27.66589
    11  H(1)              -0.01382     -61.75171     -22.03455     -20.59815
    12  H(1)               0.01487      66.46117      23.71500      22.16906
    13  H(1)               0.00928      41.47893      14.80071      13.83588
    14  H(1)              -0.01858     -83.03314     -29.62829     -27.69687
 --------------------------------------------------------
       Center         ----  Spin Dipole Couplings  ----
                      3XX-RR        3YY-RR        3ZZ-RR
 --------------------------------------------------------
     1   Atom       -0.289149     -0.273805      0.562954
     2   Atom        0.167903      0.187794     -0.355697
     3   Atom       -0.359061     -0.359011      0.718072
     4   Atom       -0.292302     -0.276542      0.568844
     5   Atom        0.302944      0.262877     -0.565821
     6   Atom        0.170833      0.190192     -0.361025
     7   Atom       -0.358666     -0.360054      0.718720
     8   Atom       -0.019043      0.022193     -0.003150
     9   Atom       -0.018419      0.025380     -0.006961
    10   Atom        0.009582     -0.009693      0.000111
    11   Atom       -0.020458      0.023575     -0.003117
    12   Atom        0.044145     -0.037472     -0.006674
    13   Atom       -0.018396      0.025378     -0.006983
    14   Atom        0.011203     -0.011332      0.000129
 --------------------------------------------------------
                        XY            XZ            YZ
 --------------------------------------------------------
     1   Atom       -0.007246      0.001318     -0.001107
     2   Atom        0.017329     -0.000719      0.000615
     3   Atom        0.020326     -0.000949     -0.000967
     4   Atom        0.007179      0.000745      0.001474
     5   Atom        0.000167      0.000903     -0.000858
     6   Atom       -0.017597     -0.000288     -0.000252
     7   Atom       -0.020316     -0.000819      0.000389
     8   Atom       -0.039107     -0.000043      0.000111
     9   Atom        0.011828      0.000018      0.000032
    10   Atom        0.056676      0.000022      0.000007
    11   Atom        0.038863     -0.000049     -0.000067
    12   Atom        0.000589      0.000054      0.000047
    13   Atom       -0.012664      0.000043     -0.000011
    14   Atom       -0.056438      0.000046     -0.000055
 --------------------------------------------------------


 ---------------------------------------------------------------------------------
              Anisotropic Spin Dipole Couplings in Principal Axis System
 ---------------------------------------------------------------------------------

       Atom             a.u.   MegaHertz   Gauss  10(-4) cm-1        Axes

              Baa    -0.2920   -39.188   -13.983   -13.072  0.9293  0.3694 -0.0010
     1 C(13)  Bbb    -0.2709   -36.356   -12.973   -12.127 -0.3694  0.9293  0.0018
              Bcc     0.5630    75.544    26.956    25.199  0.0016 -0.0013  1.0000
 
              Baa    -0.3557   -47.731   -17.032   -15.921  0.0014 -0.0012  1.0000
     2 C(13)  Bbb     0.1579    21.185     7.559     7.066  0.8654 -0.5011 -0.0018
              Bcc     0.1978    26.547     9.473     8.855  0.5011  0.8654  0.0003
 
              Baa    -0.3794   -50.907   -18.165   -16.981  0.7075 -0.7067  0.0000
     3 C(13)  Bbb    -0.3387   -45.452   -16.218   -15.161  0.7067  0.7075  0.0013
              Bcc     0.7181    96.359    34.383    32.142 -0.0009 -0.0009  1.0000
 
              Baa    -0.2951   -39.597   -14.129   -13.208  0.9325 -0.3611 -0.0002
     4 C(13)  Bbb    -0.2738   -36.737   -13.109   -12.254  0.3611  0.9325 -0.0020
              Bcc     0.5688    76.334    27.238    25.462  0.0009  0.0018  1.0000
 
              Baa    -0.5658   -75.928   -27.093   -25.327 -0.0010  0.0010  1.0000
     5 C(13)  Bbb     0.2629    35.276    12.587    11.767 -0.0042  1.0000 -0.0010
              Bcc     0.3029    40.652    14.506    13.560  1.0000  0.0042  0.0010
 
              Baa    -0.3610   -48.446   -17.287   -16.160  0.0006  0.0005  1.0000
     6 C(13)  Bbb     0.1604    21.528     7.682     7.181  0.8608  0.5089 -0.0007
              Bcc     0.2006    26.918     9.605     8.979 -0.5089  0.8608 -0.0001
 
              Baa    -0.3797   -50.950   -18.180   -16.995  0.6949  0.7191  0.0003
     7 C(13)  Bbb    -0.3390   -45.495   -16.234   -15.175  0.7191 -0.6949  0.0008
              Bcc     0.7187    96.445    34.414    32.171 -0.0008  0.0004  1.0000
 
              Baa    -0.0426   -22.748    -8.117    -7.588  0.8563  0.5165 -0.0005
     8 H(1)   Bbb    -0.0032    -1.681    -0.600    -0.561  0.0017 -0.0018  1.0000
              Bcc     0.0458    24.429     8.717     8.149 -0.5165  0.8563  0.0024
 
              Baa    -0.0214   -11.423    -4.076    -3.810  0.9695 -0.2451 -0.0006
     9 H(1)   Bbb    -0.0070    -3.714    -1.325    -1.239  0.0004 -0.0011  1.0000
              Bcc     0.0284    15.137     5.401     5.049  0.2451  0.9695  0.0010
 
              Baa    -0.0575   -30.704   -10.956   -10.242 -0.6451  0.7641  0.0002
    10 H(1)   Bbb     0.0001     0.059     0.021     0.020 -0.0002 -0.0004  1.0000
              Bcc     0.0574    30.644    10.935    10.222  0.7641  0.6451  0.0004
 
              Baa    -0.0431   -23.000    -8.207    -7.672  0.8640 -0.5035  0.0002
    11 H(1)   Bbb    -0.0031    -1.663    -0.593    -0.555  0.0007  0.0016  1.0000
              Bcc     0.0462    24.663     8.800     8.227  0.5035  0.8640 -0.0017
 
              Baa    -0.0375   -19.995    -7.135    -6.670 -0.0072  1.0000 -0.0015
    12 H(1)   Bbb    -0.0067    -3.561    -1.271    -1.188 -0.0011  0.0015  1.0000
              Bcc     0.0441    23.556     8.405     7.857  1.0000  0.0072  0.0011
 
              Baa    -0.0218   -11.629    -4.150    -3.879  0.9658  0.2593 -0.0026
    13 H(1)   Bbb    -0.0070    -3.726    -1.329    -1.243  0.0024  0.0013  1.0000
              Bcc     0.0288    15.355     5.479     5.122 -0.2593  0.9658 -0.0006
 
              Baa    -0.0576   -30.741   -10.969   -10.254  0.6341  0.7732  0.0002
    14 H(1)   Bbb     0.0001     0.069     0.025     0.023 -0.0011  0.0006  1.0000
              Bcc     0.0575    30.672    10.945    10.231  0.7732 -0.6341  0.0012
 

 ---------------------------------------------------------------------------------

 1|1|UNPC-LAPTOP-7BBBEH3F|FOpt|UHF|6-311++G(d,p)|C7H7(2)|SAIF_|02-Aug-2
 025|0||# opt freq hf/6-311++g(d,p) geom=connectivity||Title Card Requi
 red||0,2|C,-2.9131957453,-0.26528727,-0.1646391837|C,-1.5614932565,-0.
 2558700792,-0.1609355643|C,-0.6622454987,0.811758244,0.1739005614|C,-3
 .8388325603,0.8423649149,0.1816795803|C,-0.9812346994,2.1115842409,0.5
 769006221|C,-3.5278665192,2.0995327665,0.5718332143|C,-2.237797035,2.6
 985067118,0.7582835986|H,-3.3951614168,-1.1833524304,-0.4529748704|H,-
 1.0819053347,-1.1770126033,-0.4489808814|H,0.3857833627,0.5784014794,0
 .1024977292|H,-4.8842406227,0.5978661029,0.1070143368|H,-0.1387775107,
 2.7536214728,0.7758109653|H,-4.3622591179,2.7506212491,0.7753092161|H,
 -2.2419914256,3.7261936805,1.0771156756||Version=IA32W-G09RevA.02|Stat
 e=2-A|HF=-269.1633738|S2=1.24098|S2-1=0.|S2A=0.941665|RMSD=8.141e-009|
 RMSF=1.057e-004|Dipole=0.0150861,0.012142,0.0031161|Quadrupole=2.50370
 02,1.8078444,-4.3115445,0.0767978,0.0228551,2.1114828|PG=C01 [X(C7H7)]
 ||@


            THE IRISH PIG
 'TWAS AN EVENING IN NOVEMBER,
 AS I VERY WELL REMEMBER
 I WAS STROLLING DOWN THE STREET IN DRUNKEN PRIDE,
 BUT MY KNEES WERE ALL A'FLUTTER
 SO I LANDED IN THE GUTTER,
 AND A PIG CAME UP AND LAY DOWN BY MY SIDE.

 YES, I LAY THERE IN THE GUTTER
 THINKING THOUGHTS I COULD NOT UTTER
 WHEN A COLLEEN PASSING BY DID SOFTLY SAY,
 'YE CAN TELL A MAN THAT BOOZES
 BY THE COMPANY THAT HE CHOOSES.' -
 AT THAT, THE PIG GOT UP AND WALKED AWAY!
     -- THE ECONOMIST, AUGUST 23, 1986
 Job cpu time:  0 days  0 hours 36 minutes  2.0 seconds.
 File lengths (MBytes):  RWF=     50 Int=      0 D2E=      0 Chk=      4 Scr=      1
 Normal termination of Gaussian 09 at Sat Aug 02 13:26:18 2025.
 Link1:  Proceeding to internal job step number  2.
 ----------------------------------------------------------------------
 #N Geom=AllCheck Guess=TCheck SCRF=Check GenChk UHF/6-311++G(d,p) Freq
 ----------------------------------------------------------------------
 1/10=4,29=7,30=1,38=1,40=1/1,3;
 2/12=2,40=1/2;
 3/5=4,6=6,7=1111,11=2,14=-4,16=1,25=1,30=1,70=2,71=2,116=2/1,2,3;
 4/5=101/1;
 5/5=2,98=1/2;
 8/6=4,10=90,11=11/1;
 10/13=10,15=4/2;
 11/6=3,8=1,9=11,15=111,16=1/1,2,10;
 10/6=1/2;
 6/7=2,8=2,9=2,10=2,18=1,28=1/1;
 7/8=1,10=1,25=1/1,2,3,16;
 1/10=4,30=1/3;
 99//99;
 -------------------
 Title Card Required
 -------------------
 Redundant internal coordinates taken from checkpoint file:
 C:\Users\saif_\Desktop\downs\GV\seven.chk
 Charge =  0 Multiplicity = 2
 C,0,-2.9131957453,-0.26528727,-0.1646391837
 C,0,-1.5614932565,-0.2558700792,-0.1609355643
 C,0,-0.6622454987,0.811758244,0.1739005614
 C,0,-3.8388325603,0.8423649149,0.1816795803
 C,0,-0.9812346994,2.1115842409,0.5769006221
 C,0,-3.5278665192,2.0995327665,0.5718332143
 C,0,-2.237797035,2.6985067118,0.7582835986
 H,0,-3.3951614168,-1.1833524304,-0.4529748704
 H,0,-1.0819053347,-1.1770126033,-0.4489808814
 H,0,0.3857833627,0.5784014794,0.1024977292
 H,0,-4.8842406227,0.5978661029,0.1070143368
 H,0,-0.1387775107,2.7536214728,0.7758109653
 H,0,-4.3622591179,2.7506212491,0.7753092161
 H,0,-2.2419914256,3.7261936805,1.0771156756
 Recover connectivity data from disk.

 GradGradGradGradGradGradGradGradGradGradGradGradGradGradGradGradGradGrad
 Berny optimization.
 Initialization pass.
                           ----------------------------
                           !    Initial Parameters    !
                           ! (Angstroms and Degrees)  !
 --------------------------                            --------------------------
 ! Name  Definition              Value          Derivative Info.                !
 --------------------------------------------------------------------------------
 ! R1    R(1,2)                  1.3517         calculate D2E/DX2 analytically  !
 ! R2    R(1,4)                  1.4845         calculate D2E/DX2 analytically  !
 ! R3    R(1,8)                  1.0762         calculate D2E/DX2 analytically  !
 ! R4    R(2,3)                  1.4355         calculate D2E/DX2 analytically  !
 ! R5    R(2,9)                  1.0777         calculate D2E/DX2 analytically  !
 ! R6    R(3,5)                  1.3978         calculate D2E/DX2 analytically  !
 ! R7    R(3,10)                 1.0761         calculate D2E/DX2 analytically  !
 ! R8    R(4,6)                  1.3525         calculate D2E/DX2 analytically  !
 ! R9    R(4,11)                 1.0762         calculate D2E/DX2 analytically  !
 ! R10   R(5,7)                  1.3987         calculate D2E/DX2 analytically  !
 ! R11   R(5,12)                 1.0777         calculate D2E/DX2 analytically  !
 ! R12   R(6,7)                  1.4345         calculate D2E/DX2 analytically  !
 ! R13   R(6,13)                 1.0777         calculate D2E/DX2 analytically  !
 ! R14   R(7,14)                 1.076          calculate D2E/DX2 analytically  !
 ! A1    A(2,1,4)              128.148          calculate D2E/DX2 analytically  !
 ! A2    A(2,1,8)              117.0322         calculate D2E/DX2 analytically  !
 ! A3    A(4,1,8)              114.8198         calculate D2E/DX2 analytically  !
 ! A4    A(1,2,3)              129.2162         calculate D2E/DX2 analytically  !
 ! A5    A(1,2,9)              115.9957         calculate D2E/DX2 analytically  !
 ! A6    A(3,2,9)              114.7881         calculate D2E/DX2 analytically  !
 ! A7    A(2,3,5)              128.0193         calculate D2E/DX2 analytically  !
 ! A8    A(2,3,10)             115.6807         calculate D2E/DX2 analytically  !
 ! A9    A(5,3,10)             116.2999         calculate D2E/DX2 analytically  !
 ! A10   A(1,4,6)              128.1322         calculate D2E/DX2 analytically  !
 ! A11   A(1,4,11)             114.8346         calculate D2E/DX2 analytically  !
 ! A12   A(6,4,11)             117.0332         calculate D2E/DX2 analytically  !
 ! A13   A(3,5,7)              129.2452         calculate D2E/DX2 analytically  !
 ! A14   A(3,5,12)             115.3921         calculate D2E/DX2 analytically  !
 ! A15   A(7,5,12)             115.3627         calculate D2E/DX2 analytically  !
 ! A16   A(4,6,7)              129.2241         calculate D2E/DX2 analytically  !
 ! A17   A(4,6,13)             115.9752         calculate D2E/DX2 analytically  !
 ! A18   A(7,6,13)             114.8006         calculate D2E/DX2 analytically  !
 ! A19   A(5,7,6)              128.0146         calculate D2E/DX2 analytically  !
 ! A20   A(5,7,14)             116.2765         calculate D2E/DX2 analytically  !
 ! A21   A(6,7,14)             115.7089         calculate D2E/DX2 analytically  !
 ! D1    D(4,1,2,3)              0.0015         calculate D2E/DX2 analytically  !
 ! D2    D(4,1,2,9)            179.9932         calculate D2E/DX2 analytically  !
 ! D3    D(8,1,2,3)            179.9675         calculate D2E/DX2 analytically  !
 ! D4    D(8,1,2,9)             -0.0408         calculate D2E/DX2 analytically  !
 ! D5    D(2,1,4,6)              0.1888         calculate D2E/DX2 analytically  !
 ! D6    D(2,1,4,11)          -179.8613         calculate D2E/DX2 analytically  !
 ! D7    D(8,1,4,6)           -179.7779         calculate D2E/DX2 analytically  !
 ! D8    D(8,1,4,11)             0.1721         calculate D2E/DX2 analytically  !
 ! D9    D(1,2,3,5)             -0.1922         calculate D2E/DX2 analytically  !
 ! D10   D(1,2,3,10)           179.9386         calculate D2E/DX2 analytically  !
 ! D11   D(9,2,3,5)            179.8161         calculate D2E/DX2 analytically  !
 ! D12   D(9,2,3,10)            -0.0531         calculate D2E/DX2 analytically  !
 ! D13   D(2,3,5,7)              0.1555         calculate D2E/DX2 analytically  !
 ! D14   D(2,3,5,12)          -179.8065         calculate D2E/DX2 analytically  !
 ! D15   D(10,3,5,7)          -179.9759         calculate D2E/DX2 analytically  !
 ! D16   D(10,3,5,12)            0.0621         calculate D2E/DX2 analytically  !
 ! D17   D(1,4,6,7)             -0.148          calculate D2E/DX2 analytically  !
 ! D18   D(1,4,6,13)           179.9597         calculate D2E/DX2 analytically  !
 ! D19   D(11,4,6,7)           179.903          calculate D2E/DX2 analytically  !
 ! D20   D(11,4,6,13)            0.0107         calculate D2E/DX2 analytically  !
 ! D21   D(3,5,7,6)              0.0007         calculate D2E/DX2 analytically  !
 ! D22   D(3,5,7,14)           179.9957         calculate D2E/DX2 analytically  !
 ! D23   D(12,5,7,6)           179.9628         calculate D2E/DX2 analytically  !
 ! D24   D(12,5,7,14)           -0.0423         calculate D2E/DX2 analytically  !
 ! D25   D(4,6,7,5)             -0.0037         calculate D2E/DX2 analytically  !
 ! D26   D(4,6,7,14)          -179.9987         calculate D2E/DX2 analytically  !
 ! D27   D(13,6,7,5)           179.8898         calculate D2E/DX2 analytically  !
 ! D28   D(13,6,7,14)           -0.1053         calculate D2E/DX2 analytically  !
 --------------------------------------------------------------------------------
 Trust Radius=3.00D-01 FncErr=1.00D-07 GrdErr=1.00D-07
 Number of steps in this run=   2 maximum allowed number of steps=   2.
 GradGradGradGradGradGradGradGradGradGradGradGradGradGradGradGradGradGrad

                          Input orientation:                          
 ---------------------------------------------------------------------
 Center     Atomic      Atomic             Coordinates (Angstroms)
 Number     Number       Type             X           Y           Z
 ---------------------------------------------------------------------
      1          6           0       -2.913196   -0.265287   -0.164639
      2          6           0       -1.561493   -0.255870   -0.160936
      3          6           0       -0.662245    0.811758    0.173901
      4          6           0       -3.838833    0.842365    0.181680
      5          6           0       -0.981235    2.111584    0.576901
      6          6           0       -3.527867    2.099533    0.571833
      7          6           0       -2.237797    2.698507    0.758284
      8          1           0       -3.395161   -1.183352   -0.452975
      9          1           0       -1.081905   -1.177013   -0.448981
     10          1           0        0.385783    0.578401    0.102498
     11          1           0       -4.884241    0.597866    0.107014
     12          1           0       -0.138778    2.753621    0.775811
     13          1           0       -4.362259    2.750621    0.775309
     14          1           0       -2.241991    3.726194    1.077116
 ---------------------------------------------------------------------
                    Distance matrix (angstroms):
                    1          2          3          4          5
     1  C    0.000000
     2  C    1.351740   0.000000
     3  C    2.518216   1.435476   0.000000
     4  C    1.484464   2.551427   3.176744   0.000000
     5  C    3.151487   2.546751   1.397752   3.151664   0.000000
     6  C    2.551977   3.154599   3.166780   1.352550   2.546665
     7  C    3.176795   3.167127   2.526596   2.518144   1.398687
     8  H    1.076230   2.075536   3.441260   2.168677   4.212398
     9  H    2.065361   1.077719   2.125866   3.475092   3.446366
    10  H    3.415616   2.134782   1.076066   4.233595   2.108185
    11  H    2.168835   3.441121   4.227939   1.076212   4.212552
    12  H    4.206620   3.458129   2.099321   4.206697   1.077734
    13  H    3.475484   4.214242   4.220306   2.065869   3.446601
    14  H    4.233721   4.225243   3.435888   3.415871   2.108717
                    6          7          8          9         10
     6  C    0.000000
     7  C    1.434508   0.000000
     8  H    3.441682   4.227939   0.000000
     9  H    4.214325   4.220571   2.313268   0.000000
    10  H    4.225017   3.436288   4.208072   2.353660   0.000000
    11  H    2.076249   3.441004   2.388239   4.232857   5.270062
    12  H    3.457653   2.099816   5.254875   4.223682   2.336685
    13  H    1.077743   2.125169   4.233215   5.261741   5.264515
    14  H    2.134200   1.076017   5.270163   5.264618   4.214698
                   11         12         13         14
    11  H    0.000000
    12  H    5.254902   0.000000
    13  H    2.313750   4.223483   0.000000
    14  H    4.208208   2.336705   2.353373   0.000000
 Stoichiometry    C7H7(2)
 Framework group  C1[X(C7H7)]
 Deg. of freedom    36
 Full point group                 C1      NOp   1
 Largest Abelian subgroup         C1      NOp   1
 Largest concise Abelian subgroup C1      NOp   1
                         Standard orientation:                         
 ---------------------------------------------------------------------
 Center     Atomic      Atomic             Coordinates (Angstroms)
 Number     Number       Type             X           Y           Z
 ---------------------------------------------------------------------
      1          6           0        0.752661   -1.440024   -0.000699
      2          6           0        1.579924   -0.370988   -0.000524
      3          6           0        1.255802    1.027416    0.001448
      4          6           0       -0.731763   -1.450747    0.001097
      5          6           0       -0.011302    1.617464   -0.000013
      6          6           0       -1.574599   -0.392911   -0.000211
      7          6           0       -1.270726    1.009043   -0.000771
      8          1           0        1.211468   -2.413555   -0.002904
      9          1           0        2.635104   -0.590243   -0.001936
     10          1           0        2.095240    1.700663    0.002203
     11          1           0       -1.176703   -2.430674    0.002919
     12          1           0       -0.019244    2.695169   -0.001291
     13          1           0       -2.626504   -0.627480    0.000877
     14          1           0       -2.119348    1.670595   -0.001832
 ---------------------------------------------------------------------
 Rotational constants (GHZ):      3.7284941      3.6886353      1.8542300
 Standard basis: 6-311++G(d,p) (5D, 7F)
 There are   203 symmetry adapted basis functions of A   symmetry.
 Integral buffers will be    262144 words long.
 Raffenetti 2 integral format.
 Two-electron integral symmetry is turned on.
   203 basis functions,   315 primitive gaussians,   210 cartesian basis functions
    25 alpha electrons       24 beta electrons
       nuclear repulsion energy       257.8272062521 Hartrees.
 NAtoms=   14 NActive=   14 NUniq=   14 SFac= 7.50D-01 NAtFMM=   80 NAOKFM=F Big=F
 One-electron integrals computed using PRISM.
 NBasis=   203 RedAO= T  NBF=   203
 NBsUse=   203 1.00D-06 NBFU=   203
 Initial guess read from the checkpoint file:  C:\Users\saif_\Desktop\downs\GV\se
 ven.chk
 B after Tr=     0.000000    0.000000    0.000000
         Rot=    1.000000    0.000000    0.000000    0.000000 Ang=   0.00 deg.
 Initial guess orbital symmetries:
 Alpha Orbitals:
       Occupied  (A) (A) (A) (A) (A) (A) (A) (A) (A) (A) (A) (A)
                 (A) (A) (A) (A) (A) (A) (A) (A) (A) (A) (A) (A)
                 (A)
       Virtual   (A) (A) (A) (A) (A) (A) (A) (A) (A) (A) (A) (A)
                 (A) (A) (A) (A) (A) (A) (A) (A) (A) (A) (A) (A)
                 (A) (A) (A) (A) (A) (A) (A) (A) (A) (A) (A) (A)
                 (A) (A) (A) (A) (A) (A) (A) (A) (A) (A) (A) (A)
                 (A) (A) (A) (A) (A) (A) (A) (A) (A) (A) (A) (A)
                 (A) (A) (A) (A) (A) (A) (A) (A) (A) (A) (A) (A)
                 (A) (A) (A) (A) (A) (A) (A) (A) (A) (A) (A) (A)
                 (A) (A) (A) (A) (A) (A) (A) (A) (A) (A) (A) (A)
                 (A) (A) (A) (A) (A) (A) (A) (A) (A) (A) (A) (A)
                 (A) (A) (A) (A) (A) (A) (A) (A) (A) (A) (A) (A)
                 (A) (A) (A) (A) (A) (A) (A) (A) (A) (A) (A) (A)
                 (A) (A) (A) (A) (A) (A) (A) (A) (A) (A) (A) (A)
                 (A) (A) (A) (A) (A) (A) (A) (A) (A) (A) (A) (A)
                 (A) (A) (A) (A) (A) (A) (A) (A) (A) (A) (A) (A)
                 (A) (A) (A) (A) (A) (A) (A) (A) (A) (A)
 Beta  Orbitals:
       Occupied  (A) (A) (A) (A) (A) (A) (A) (A) (A) (A) (A) (A)
                 (A) (A) (A) (A) (A) (A) (A) (A) (A) (A) (A) (A)
       Virtual   (A) (A) (A) (A) (A) (A) (A) (A) (A) (A) (A) (A)
                 (A) (A) (A) (A) (A) (A) (A) (A) (A) (A) (A) (A)
                 (A) (A) (A) (A) (A) (A) (A) (A) (A) (A) (A) (A)
                 (A) (A) (A) (A) (A) (A) (A) (A) (A) (A) (A) (A)
                 (A) (A) (A) (A) (A) (A) (A) (A) (A) (A) (A) (A)
                 (A) (A) (A) (A) (A) (A) (A) (A) (A) (A) (A) (A)
                 (A) (A) (A) (A) (A) (A) (A) (A) (A) (A) (A) (A)
                 (A) (A) (A) (A) (A) (A) (A) (A) (A) (A) (A) (A)
                 (A) (A) (A) (A) (A) (A) (A) (A) (A) (A) (A) (A)
                 (A) (A) (A) (A) (A) (A) (A) (A) (A) (A) (A) (A)
                 (A) (A) (A) (A) (A) (A) (A) (A) (A) (A) (A) (A)
                 (A) (A) (A) (A) (A) (A) (A) (A) (A) (A) (A) (A)
                 (A) (A) (A) (A) (A) (A) (A) (A) (A) (A) (A) (A)
                 (A) (A) (A) (A) (A) (A) (A) (A) (A) (A) (A) (A)
                 (A) (A) (A) (A) (A) (A) (A) (A) (A) (A) (A)
 Initial guess <Sx>= 0.0000 <Sy>= 0.0000 <Sz>= 0.5000 <S**2>= 1.2410 S= 0.7211
 Requested convergence on RMS density matrix=1.00D-08 within 128 cycles.
 Requested convergence on MAX density matrix=1.00D-06.
 Requested convergence on             energy=1.00D-06.
 No special actions if energy rises.
 SCF Done:  E(UHF) =  -269.163373782     A.U. after    1 cycles
             Convg  =    0.2569D-08             -V/T =  2.0003
 <Sx>= 0.0000 <Sy>= 0.0000 <Sz>= 0.5000 <S**2>= 1.2410 S= 0.7211
 <L.S>= 0.000000000000E+00
 Annihilation of the first spin contaminant:
 S**2 before annihilation     1.2410,   after     0.9417
 Range of M.O.s used for correlation:     1   203
 NBasis=   203 NAE=    25 NBE=    24 NFC=     0 NFV=     0
 NROrb=    203 NOA=    25 NOB=    24 NVA=   178 NVB=   179

 **** Warning!!: The largest alpha MO coefficient is  0.21391775D+03


 **** Warning!!: The largest beta MO coefficient is  0.21389365D+03

          Differentiating once with respect to electric field.
                with respect to dipole field.
          Electric field/nuclear overlap derivatives assumed to be zero.
          There are     3 degrees of freedom in the 1st order CPHF.  IDoFFX=0.
      3 vectors produced by pass  0 Test12= 2.92D-13 3.33D-08 XBig12= 5.62D+01 3.20D+00.
 AX will form     3 AO Fock derivatives at one time.
      3 vectors produced by pass  1 Test12= 2.92D-13 3.33D-08 XBig12= 4.02D+00 3.42D-01.
      3 vectors produced by pass  2 Test12= 2.92D-13 3.33D-08 XBig12= 5.23D-01 2.44D-01.
      3 vectors produced by pass  3 Test12= 2.92D-13 3.33D-08 XBig12= 4.01D-02 6.10D-02.
      3 vectors produced by pass  4 Test12= 2.92D-13 3.33D-08 XBig12= 7.26D-03 3.06D-02.
      3 vectors produced by pass  5 Test12= 2.92D-13 3.33D-08 XBig12= 1.65D-03 1.47D-02.
      3 vectors produced by pass  6 Test12= 2.92D-13 3.33D-08 XBig12= 1.18D-04 3.51D-03.
      3 vectors produced by pass  7 Test12= 2.92D-13 3.33D-08 XBig12= 5.01D-06 5.81D-04.
      3 vectors produced by pass  8 Test12= 2.92D-13 3.33D-08 XBig12= 3.51D-07 1.84D-04.
      3 vectors produced by pass  9 Test12= 2.92D-13 3.33D-08 XBig12= 5.19D-08 7.56D-05.
      3 vectors produced by pass 10 Test12= 2.92D-13 3.33D-08 XBig12= 2.55D-09 1.01D-05.
      2 vectors produced by pass 11 Test12= 2.92D-13 3.33D-08 XBig12= 1.52D-10 2.50D-06.
      2 vectors produced by pass 12 Test12= 2.92D-13 3.33D-08 XBig12= 5.12D-12 5.70D-07.
      2 vectors produced by pass 13 Test12= 2.92D-13 3.33D-08 XBig12= 1.76D-13 1.75D-07.
 Inverted reduced A of dimension    39 with in-core refinement.
 End of Minotr Frequency-dependent properties file   721 does not exist.
 End of Minotr Frequency-dependent properties file   722 does not exist.
 Symmetrizing basis deriv contribution to polar:
 IMax=3 JMax=2 DiffMx= 0.00D+00
 G2DrvN: will do    15 centers at a time, making    1 passes doing MaxLOS=2.
 Calling FoFCou, ICntrl=  3107 FMM=F I1Cent=   0 AccDes= 0.00D+00.
 FoFDir/FoFCou used for L=0 through L=2.
 End of G2Drv Frequency-dependent properties file   721 does not exist.
 End of G2Drv Frequency-dependent properties file   722 does not exist.
          IDoAtm=11111111111111
          Differentiating once with respect to electric field.
                with respect to dipole field.
          Differentiating once with respect to nuclear coordinates.
          There are    45 degrees of freedom in the 1st order CPHF.  IDoFFX=5.
 Will reuse    3 saved solutions.
     39 vectors produced by pass  0 Test12= 1.94D-14 2.22D-09 XBig12= 1.92D-01 1.37D-01.
 AX will form    39 AO Fock derivatives at one time.
     39 vectors produced by pass  1 Test12= 1.94D-14 2.22D-09 XBig12= 1.32D-02 4.29D-02.
     39 vectors produced by pass  2 Test12= 1.94D-14 2.22D-09 XBig12= 8.45D-04 7.84D-03.
     39 vectors produced by pass  3 Test12= 1.94D-14 2.22D-09 XBig12= 1.91D-05 9.61D-04.
     39 vectors produced by pass  4 Test12= 1.94D-14 2.22D-09 XBig12= 2.82D-07 8.91D-05.
     39 vectors produced by pass  5 Test12= 1.94D-14 2.22D-09 XBig12= 5.57D-09 8.99D-06.
     39 vectors produced by pass  6 Test12= 1.94D-14 2.22D-09 XBig12= 8.35D-11 1.02D-06.
     38 vectors produced by pass  7 Test12= 1.94D-14 2.22D-09 XBig12= 1.17D-12 1.07D-07.
     17 vectors produced by pass  8 Test12= 1.94D-14 2.22D-09 XBig12= 1.33D-14 1.15D-08.
 Inverted reduced A of dimension   328 with in-core refinement.
 Isotropic polarizability for W=    0.000000       73.28 Bohr**3.
 End of Minotr Frequency-dependent properties file   721 does not exist.
 End of Minotr Frequency-dependent properties file   722 does not exist.

 **********************************************************************

            Population analysis using the SCF density.

 **********************************************************************

 Orbital symmetries:
 Alpha Orbitals:
       Occupied  (A) (A) (A) (A) (A) (A) (A) (A) (A) (A) (A) (A)
                 (A) (A) (A) (A) (A) (A) (A) (A) (A) (A) (A) (A)
                 (A)
       Virtual   (A) (A) (A) (A) (A) (A) (A) (A) (A) (A) (A) (A)
                 (A) (A) (A) (A) (A) (A) (A) (A) (A) (A) (A) (A)
                 (A) (A) (A) (A) (A) (A) (A) (A) (A) (A) (A) (A)
                 (A) (A) (A) (A) (A) (A) (A) (A) (A) (A) (A) (A)
                 (A) (A) (A) (A) (A) (A) (A) (A) (A) (A) (A) (A)
                 (A) (A) (A) (A) (A) (A) (A) (A) (A) (A) (A) (A)
                 (A) (A) (A) (A) (A) (A) (A) (A) (A) (A) (A) (A)
                 (A) (A) (A) (A) (A) (A) (A) (A) (A) (A) (A) (A)
                 (A) (A) (A) (A) (A) (A) (A) (A) (A) (A) (A) (A)
                 (A) (A) (A) (A) (A) (A) (A) (A) (A) (A) (A) (A)
                 (A) (A) (A) (A) (A) (A) (A) (A) (A) (A) (A) (A)
                 (A) (A) (A) (A) (A) (A) (A) (A) (A) (A) (A) (A)
                 (A) (A) (A) (A) (A) (A) (A) (A) (A) (A) (A) (A)
                 (A) (A) (A) (A) (A) (A) (A) (A) (A) (A) (A) (A)
                 (A) (A) (A) (A) (A) (A) (A) (A) (A) (A)
 Beta  Orbitals:
       Occupied  (A) (A) (A) (A) (A) (A) (A) (A) (A) (A) (A) (A)
                 (A) (A) (A) (A) (A) (A) (A) (A) (A) (A) (A) (A)
       Virtual   (A) (A) (A) (A) (A) (A) (A) (A) (A) (A) (A) (A)
                 (A) (A) (A) (A) (A) (A) (A) (A) (A) (A) (A) (A)
                 (A) (A) (A) (A) (A) (A) (A) (A) (A) (A) (A) (A)
                 (A) (A) (A) (A) (A) (A) (A) (A) (A) (A) (A) (A)
                 (A) (A) (A) (A) (A) (A) (A) (A) (A) (A) (A) (A)
                 (A) (A) (A) (A) (A) (A) (A) (A) (A) (A) (A) (A)
                 (A) (A) (A) (A) (A) (A) (A) (A) (A) (A) (A) (A)
                 (A) (A) (A) (A) (A) (A) (A) (A) (A) (A) (A) (A)
                 (A) (A) (A) (A) (A) (A) (A) (A) (A) (A) (A) (A)
                 (A) (A) (A) (A) (A) (A) (A) (A) (A) (A) (A) (A)
                 (A) (A) (A) (A) (A) (A) (A) (A) (A) (A) (A) (A)
                 (A) (A) (A) (A) (A) (A) (A) (A) (A) (A) (A) (A)
                 (A) (A) (A) (A) (A) (A) (A) (A) (A) (A) (A) (A)
                 (A) (A) (A) (A) (A) (A) (A) (A) (A) (A) (A) (A)
                 (A) (A) (A) (A) (A) (A) (A) (A) (A) (A) (A)
 The electronic state is 2-A.
 Alpha  occ. eigenvalues --  -11.24047 -11.23975 -11.23842 -11.23836 -11.23267
 Alpha  occ. eigenvalues --  -11.23262 -11.23123  -1.13498  -1.05156  -1.05150
 Alpha  occ. eigenvalues --   -0.92149  -0.86999  -0.72006  -0.71843  -0.70225
 Alpha  occ. eigenvalues --   -0.61666  -0.61405  -0.54971  -0.54784  -0.51862
 Alpha  occ. eigenvalues --   -0.50804  -0.48010  -0.42193  -0.41367  -0.25826
 Alpha virt. eigenvalues --    0.04241   0.04856   0.04867   0.06451   0.06462
 Alpha virt. eigenvalues --    0.08634   0.09010   0.09016   0.12798   0.14794
 Alpha virt. eigenvalues --    0.14818   0.15226   0.17972   0.17980   0.18181
 Alpha virt. eigenvalues --    0.18195   0.18264   0.19394   0.19487   0.19724
 Alpha virt. eigenvalues --    0.19869   0.20068   0.20672   0.22113   0.22159
 Alpha virt. eigenvalues --    0.23106   0.23151   0.23999   0.24091   0.28078
 Alpha virt. eigenvalues --    0.28548   0.29333   0.29334   0.30214   0.30819
 Alpha virt. eigenvalues --    0.31712   0.32998   0.33004   0.34357   0.39297
 Alpha virt. eigenvalues --    0.39683   0.41758   0.44271   0.44540   0.45023
 Alpha virt. eigenvalues --    0.45394   0.47073   0.56118   0.56711   0.57839
 Alpha virt. eigenvalues --    0.57873   0.60018   0.68933   0.71016   0.72081
 Alpha virt. eigenvalues --    0.73744   0.73796   0.74986   0.75006   0.75060
 Alpha virt. eigenvalues --    0.75284   0.77064   0.78102   0.82772   0.83652
 Alpha virt. eigenvalues --    0.86919   0.87589   0.89756   0.92561   0.95034
 Alpha virt. eigenvalues --    0.95680   0.96781   1.00362   1.00768   1.02629
 Alpha virt. eigenvalues --    1.02704   1.03013   1.03111   1.07789   1.08491
 Alpha virt. eigenvalues --    1.13612   1.14279   1.17559   1.17834   1.21779
 Alpha virt. eigenvalues --    1.23009   1.26591   1.27282   1.28076   1.28549
 Alpha virt. eigenvalues --    1.35120   1.35286   1.39476   1.40586   1.63885
 Alpha virt. eigenvalues --    1.71323   1.71329   1.75107   1.75746   1.79378
 Alpha virt. eigenvalues --    1.79684   1.79759   1.88315   1.89777   1.92471
 Alpha virt. eigenvalues --    1.93198   1.94867   1.96565   2.01114   2.01602
 Alpha virt. eigenvalues --    2.01936   2.04124   2.04274   2.19932   2.19946
 Alpha virt. eigenvalues --    2.20159   2.21862   2.22140   2.24356   2.24481
 Alpha virt. eigenvalues --    2.28249   2.28384   2.33305   2.33924   2.34722
 Alpha virt. eigenvalues --    2.39107   2.53109   2.53608   2.73862   2.73959
 Alpha virt. eigenvalues --    2.75281   2.77863   2.78043   2.78278   2.93362
 Alpha virt. eigenvalues --    2.93487   2.97103   2.97999   2.98598   2.98953
 Alpha virt. eigenvalues --    3.00210   3.02910   3.03145   3.03963   3.05656
 Alpha virt. eigenvalues --    3.05854   3.07092   3.08698   3.18964   3.19013
 Alpha virt. eigenvalues --    3.24466   3.28044   3.33488   3.37925   3.38512
 Alpha virt. eigenvalues --    3.60464   3.64034   3.71162   3.71413   3.76903
 Alpha virt. eigenvalues --    3.85668   3.86441   3.94681   3.96430   4.37338
 Alpha virt. eigenvalues --    4.38553   4.44022   4.44546   4.65696   4.66217
 Alpha virt. eigenvalues --    5.28400  24.75548  24.98285  25.04427  25.16302
 Alpha virt. eigenvalues --   25.29774  25.38377  25.39167
  Beta  occ. eigenvalues --  -11.24604 -11.24288 -11.24281 -11.22893 -11.22821
  Beta  occ. eigenvalues --  -11.22113 -11.22108  -1.12087  -1.04299  -1.03424
  Beta  occ. eigenvalues --   -0.87606  -0.87568  -0.71089  -0.71066  -0.69934
  Beta  occ. eigenvalues --   -0.61538  -0.61062  -0.54563  -0.54373  -0.50199
  Beta  occ. eigenvalues --   -0.47840  -0.47239  -0.37369  -0.36115
  Beta virt. eigenvalues --    0.04258   0.04875   0.04876   0.06293   0.06453
  Beta virt. eigenvalues --    0.06484   0.09022   0.09023   0.09195   0.12993
  Beta virt. eigenvalues --    0.15224   0.15330   0.15450   0.17989   0.17996
  Beta virt. eigenvalues --    0.18255   0.18296   0.19436   0.19591   0.19830
  Beta virt. eigenvalues --    0.19931   0.20534   0.20539   0.20983   0.22271
  Beta virt. eigenvalues --    0.22373   0.23183   0.23199   0.24057   0.24066
  Beta virt. eigenvalues --    0.28435   0.28600   0.29333   0.29335   0.30891
  Beta virt. eigenvalues --    0.33068   0.33072   0.34356   0.34502   0.35491
  Beta virt. eigenvalues --    0.39550   0.39796   0.43407   0.44808   0.44951
  Beta virt. eigenvalues --    0.44966   0.45896   0.46854   0.56576   0.56932
  Beta virt. eigenvalues --    0.57845   0.58130   0.60441   0.70569   0.73072
  Beta virt. eigenvalues --    0.73238   0.73861   0.73946   0.74432   0.75996
  Beta virt. eigenvalues --    0.76067   0.76336   0.77695   0.82158   0.83525
  Beta virt. eigenvalues --    0.83852   0.88694   0.89155   0.90275   0.92684
  Beta virt. eigenvalues --    0.95058   0.95730   0.97137   1.00907   1.01116
  Beta virt. eigenvalues --    1.02530   1.02729   1.03708   1.03803   1.08024
  Beta virt. eigenvalues --    1.08895   1.13904   1.14594   1.18054   1.19081
  Beta virt. eigenvalues --    1.22898   1.23056   1.27681   1.28138   1.29931
  Beta virt. eigenvalues --    1.30954   1.35653   1.35811   1.40895   1.41733
  Beta virt. eigenvalues --    1.65337   1.71614   1.72039   1.75572   1.75996
  Beta virt. eigenvalues --    1.79878   1.80146   1.80179   1.88893   1.92115
  Beta virt. eigenvalues --    1.93649   1.94002   1.95703   1.96009   2.01690
  Beta virt. eigenvalues --    2.01718   2.01930   2.04327   2.04736   2.19926
  Beta virt. eigenvalues --    2.19962   2.22332   2.22529   2.22656   2.24132
  Beta virt. eigenvalues --    2.24451   2.28483   2.28782   2.34768   2.35145
  Beta virt. eigenvalues --    2.35718   2.39253   2.54113   2.54183   2.73651
  Beta virt. eigenvalues --    2.75091   2.75880   2.77882   2.78167   2.78254
  Beta virt. eigenvalues --    2.93602   2.93741   2.97194   2.98227   2.98728
  Beta virt. eigenvalues --    2.98986   3.00194   3.03157   3.04091   3.04620
  Beta virt. eigenvalues --    3.05828   3.05971   3.07436   3.08605   3.19728
  Beta virt. eigenvalues --    3.20036   3.27433   3.28904   3.33668   3.39242
  Beta virt. eigenvalues --    3.39548   3.61007   3.64227   3.71289   3.71715
  Beta virt. eigenvalues --    3.77318   3.85484   3.86738   3.94933   3.96648
  Beta virt. eigenvalues --    4.38236   4.38478   4.44439   4.44770   4.66271
  Beta virt. eigenvalues --    4.66625   5.28922  24.75731  24.98421  25.04476
  Beta virt. eigenvalues --   25.17434  25.29802  25.38389  25.39132
          Condensed to atoms (all electrons):
              1          2          3          4          5          6
     1  C    6.734920  -0.785980   0.845503  -1.089233  -0.356451   0.835737
     2  C   -0.785980   6.728998  -1.149465   0.835143   0.948321  -0.292532
     3  C    0.845503  -1.149465   6.981741  -0.315242  -1.002464  -0.402512
     4  C   -1.089233   0.835143  -0.315242   6.735868  -0.356066  -0.786701
     5  C   -0.356451   0.948321  -1.002464  -0.356066   6.684504   0.948314
     6  C    0.835737  -0.292532  -0.402512  -0.786701   0.948314   6.728387
     7  C   -0.315414  -0.402349   0.909213   0.845204  -1.004572  -1.148583
     8  H    0.446257  -0.077894   0.030113  -0.089464  -0.009227   0.029008
     9  H   -0.083611   0.464627  -0.106396   0.031002   0.038659  -0.006450
    10  H    0.027348  -0.087953   0.447758  -0.010666  -0.076764  -0.009434
    11  H   -0.089347   0.028933  -0.010864   0.446035  -0.009202  -0.077776
    12  H   -0.012569   0.039677  -0.100900  -0.012619   0.465197   0.039721
    13  H    0.031078  -0.006482  -0.015800  -0.083771   0.038721   0.464726
    14  H   -0.010625  -0.009464   0.027733   0.027314  -0.076915  -0.087784
              7          8          9         10         11         12
     1  C   -0.315414   0.446257  -0.083611   0.027348  -0.089347  -0.012569
     2  C   -0.402349  -0.077894   0.464627  -0.087953   0.028933   0.039677
     3  C    0.909213   0.030113  -0.106396   0.447758  -0.010864  -0.100900
     4  C    0.845204  -0.089464   0.031002  -0.010666   0.446035  -0.012619
     5  C   -1.004572  -0.009227   0.038659  -0.076764  -0.009202   0.465197
     6  C   -1.148583   0.029008  -0.006450  -0.009434  -0.077776   0.039721
     7  C    6.983352  -0.010873  -0.015785   0.027752   0.030051  -0.101174
     8  H   -0.010873   0.484824  -0.001846   0.000915   0.003235  -0.000088
     9  H   -0.015785  -0.001846   0.491877   0.001204   0.000900   0.001517
    10  H    0.027752   0.000915   0.001204   0.485834  -0.000192  -0.000211
    11  H    0.030051   0.003235   0.000900  -0.000192   0.484772  -0.000090
    12  H   -0.101174  -0.000088   0.001517  -0.000211  -0.000090   0.494466
    13  H   -0.106491   0.000904   0.000122  -0.000163  -0.001819   0.001523
    14  H    0.447813  -0.000190  -0.000164   0.000784   0.000912  -0.000187
             13         14
     1  C    0.031078  -0.010625
     2  C   -0.006482  -0.009464
     3  C   -0.015800   0.027733
     4  C   -0.083771   0.027314
     5  C    0.038721  -0.076915
     6  C    0.464726  -0.087784
     7  C   -0.106491   0.447813
     8  H    0.000904  -0.000190
     9  H    0.000122  -0.000164
    10  H   -0.000163   0.000784
    11  H   -0.001819   0.000912
    12  H    0.001523  -0.000187
    13  H    0.491984   0.001172
    14  H    0.001172   0.485817
 Mulliken atomic charges:
              1
     1  C   -0.177613
     2  C   -0.233579
     3  C   -0.138417
     4  C   -0.176804
     5  C   -0.232055
     6  C   -0.234120
     7  C   -0.138143
     8  H    0.194328
     9  H    0.184344
    10  H    0.193786
    11  H    0.194452
    12  H    0.185737
    13  H    0.184299
    14  H    0.193784
 Sum of Mulliken atomic charges =   0.00000
 Mulliken charges with hydrogens summed into heavy atoms:
              1
     1  C    0.016715
     2  C   -0.049235
     3  C    0.055370
     4  C    0.017648
     5  C   -0.046318
     6  C   -0.049821
     7  C    0.055642
 Sum of Mulliken charges with hydrogens summed into heavy atoms =   0.00000
          Atomic-Atomic Spin Densities.
              1          2          3          4          5          6
     1  C    0.595314   0.247950  -0.181736   0.010200   0.094975  -0.117734
     2  C    0.247950  -0.872494   0.239428  -0.117841  -0.233303  -0.021125
     3  C   -0.181736   0.239428   0.737775  -0.009386   0.326301   0.143970
     4  C    0.010200  -0.117841  -0.009386   0.604712   0.095322   0.247519
     5  C    0.094975  -0.233303   0.326301   0.095322  -1.263382  -0.233564
     6  C   -0.117734  -0.021125   0.143970   0.247519  -0.233564  -0.880826
     7  C   -0.008964   0.143490  -0.271209  -0.182042   0.325868   0.240679
     8  H   -0.029733   0.025162  -0.010962   0.012449   0.006170   0.001094
     9  H    0.005335  -0.010320   0.018985  -0.000653  -0.012896  -0.006380
    10  H   -0.006237   0.027819  -0.048047   0.000342   0.032065   0.006334
    11  H    0.012503   0.001099  -0.001533  -0.029923   0.006203   0.025273
    12  H    0.001750  -0.009734   0.010832   0.001793  -0.004992  -0.009764
    13  H   -0.000600  -0.006405   0.007768   0.005243  -0.012950  -0.010194
    14  H    0.000347   0.006325  -0.011905  -0.006255   0.032082   0.027898
              7          8          9         10         11         12
     1  C   -0.008964  -0.029733   0.005335  -0.006237   0.012503   0.001750
     2  C    0.143490   0.025162  -0.010320   0.027819   0.001099  -0.009734
     3  C   -0.271209  -0.010962   0.018985  -0.048047  -0.001533   0.010832
     4  C   -0.182042   0.012449  -0.000653   0.000342  -0.029923   0.001793
     5  C    0.325868   0.006170  -0.012896   0.032065   0.006203  -0.004992
     6  C    0.240679   0.001094  -0.006380   0.006334   0.025273  -0.009764
     7  C    0.738839  -0.001520   0.007753  -0.011895  -0.010982   0.010878
     8  H   -0.001520  -0.071527   0.003440  -0.000533   0.001184   0.000119
     9  H    0.007753   0.003440   0.036354   0.002464   0.000347  -0.000302
    10  H   -0.011895  -0.000533   0.002464  -0.092893  -0.000140   0.002269
    11  H   -0.010982   0.001184   0.000347  -0.000140  -0.072225   0.000120
    12  H    0.010878   0.000119  -0.000302   0.002269   0.000120   0.066058
    13  H    0.018947   0.000350  -0.000229   0.000163   0.003428  -0.000304
    14  H   -0.048122  -0.000140   0.000162  -0.000710  -0.000536   0.002267
             13         14
     1  C   -0.000600   0.000347
     2  C   -0.006405   0.006325
     3  C    0.007768  -0.011905
     4  C    0.005243  -0.006255
     5  C   -0.012950   0.032082
     6  C   -0.010194   0.027898
     7  C    0.018947  -0.048122
     8  H    0.000350  -0.000140
     9  H   -0.000229   0.000162
    10  H    0.000163  -0.000710
    11  H    0.003428  -0.000536
    12  H   -0.000304   0.002267
    13  H    0.037025   0.002467
    14  H    0.002467  -0.092992
 Mulliken atomic spin densities:
              1
     1  C    0.623370
     2  C   -0.579950
     3  C    0.950281
     4  C    0.631481
     5  C   -0.842101
     6  C   -0.586819
     7  C    0.951720
     8  H   -0.064446
     9  H    0.044059
    10  H   -0.089000
    11  H   -0.065182
    12  H    0.070990
    13  H    0.044710
    14  H   -0.089113
 Sum of Mulliken atomic spin densities =   1.00000
 APT atomic charges:
              1
     1  C   -0.028415
     2  C    0.002098
     3  C    0.005512
     4  C   -0.029615
     5  C   -0.030002
     6  C    0.002773
     7  C    0.004801
     8  H    0.011140
     9  H    0.010274
    10  H    0.011938
    11  H    0.011140
    12  H    0.006162
    13  H    0.010212
    14  H    0.011983
 Sum of APT charges=   0.00000
 APT Atomic charges with hydrogens summed into heavy atoms:
              1
     1  C   -0.017275
     2  C    0.012371
     3  C    0.017450
     4  C   -0.018475
     5  C   -0.023840
     6  C    0.012985
     7  C    0.016784
     8  H    0.000000
     9  H    0.000000
    10  H    0.000000
    11  H    0.000000
    12  H    0.000000
    13  H    0.000000
    14  H    0.000000
 Sum of APT charges=   0.00000
 Electronic spatial extent (au):  <R**2>=            668.2630
 Charge=              0.0000 electrons
 Dipole moment (field-independent basis, Debye):
    X=             -0.0013    Y=              0.0498    Z=             -0.0016  Tot=              0.0499
 Quadrupole moment (field-independent basis, Debye-Ang):
   XX=            -37.6844   YY=            -37.4629   ZZ=            -47.5997
   XY=             -0.0006   XZ=             -0.0050   YZ=             -0.0031
 Traceless Quadrupole moment (field-independent basis, Debye-Ang):
   XX=              3.2312   YY=              3.4528   ZZ=             -6.6840
   XY=             -0.0006   XZ=             -0.0050   YZ=             -0.0031
 Octapole moment (field-independent basis, Debye-Ang**2):
  XXX=             -0.0121  YYY=             -0.3480  ZZZ=             -0.0024  XYY=              0.0060
  XXY=              0.6975  XXZ=             -0.0057  XZZ=             -0.0053  YZZ=              0.2517
  YYZ=             -0.0100  XYZ=              0.0229
 Hexadecapole moment (field-independent basis, Debye-Ang**3):
 XXXX=           -404.2964 YYYY=           -399.8735 ZZZZ=            -58.5258 XXXY=              0.0857
 XXXZ=             -0.0349 YYYX=             -0.0910 YYYZ=             -0.0308 ZZZX=             -0.0046
 ZZZY=             -0.0060 XXYY=           -137.4426 XXZZ=            -94.9279 YYZZ=            -93.7204
 XXYZ=              0.0035 YYXZ=             -0.0232 ZZXY=              0.0003
 N-N= 2.578272062521D+02 E-N=-1.705832287387D+03  KE= 4.029474786677D+02
  Exact polarizability:  85.001   0.001  88.011   0.007  -0.005  46.823
 Approx polarizability:  71.879   0.008  74.692   0.009  -0.006  48.246
                          Isotropic Fermi Contact Couplings
        Atom                 a.u.       MegaHertz       Gauss      10(-4) cm-1
     1  C(13)              0.05463      61.41752      21.91530      20.48668
     2  C(13)             -0.09660    -108.60217     -38.75195     -36.22579
     3  C(13)              0.12608     141.74109      50.57674      47.27974
     4  C(13)              0.05590      62.83937      22.42265      20.96096
     5  C(13)             -0.12723    -143.03530     -51.03855     -47.71144
     6  C(13)             -0.09747    -109.56987     -39.09725     -36.54858
     7  C(13)              0.12640     142.09976      50.70473      47.39938
     8  H(1)              -0.01366     -61.07188     -21.79197     -20.37139
     9  H(1)               0.00914      40.86272      14.58083      13.63034
    10  H(1)              -0.01856     -82.94021     -29.59513     -27.66588
    11  H(1)              -0.01382     -61.75175     -22.03456     -20.59817
    12  H(1)               0.01487      66.46117      23.71500      22.16906
    13  H(1)               0.00928      41.47897      14.80073      13.83590
    14  H(1)              -0.01858     -83.03318     -29.62830     -27.69689
 --------------------------------------------------------
       Center         ----  Spin Dipole Couplings  ----
                      3XX-RR        3YY-RR        3ZZ-RR
 --------------------------------------------------------
     1   Atom       -0.289149     -0.273805      0.562955
     2   Atom        0.167903      0.187794     -0.355697
     3   Atom       -0.359061     -0.359011      0.718072
     4   Atom       -0.292302     -0.276542      0.568845
     5   Atom        0.302944      0.262877     -0.565821
     6   Atom        0.170833      0.190192     -0.361025
     7   Atom       -0.358666     -0.360054      0.718720
     8   Atom       -0.019043      0.022193     -0.003150
     9   Atom       -0.018419      0.025380     -0.006961
    10   Atom        0.009582     -0.009693      0.000111
    11   Atom       -0.020458      0.023575     -0.003117
    12   Atom        0.044145     -0.037472     -0.006674
    13   Atom       -0.018396      0.025378     -0.006983
    14   Atom        0.011203     -0.011332      0.000129
 --------------------------------------------------------
                        XY            XZ            YZ
 --------------------------------------------------------
     1   Atom       -0.007246      0.001318     -0.001107
     2   Atom        0.017329     -0.000719      0.000615
     3   Atom        0.020326     -0.000949     -0.000967
     4   Atom        0.007179      0.000745      0.001474
     5   Atom        0.000167      0.000903     -0.000858
     6   Atom       -0.017597     -0.000288     -0.000252
     7   Atom       -0.020316     -0.000819      0.000389
     8   Atom       -0.039107     -0.000043      0.000111
     9   Atom        0.011828      0.000018      0.000032
    10   Atom        0.056676      0.000022      0.000007
    11   Atom        0.038863     -0.000049     -0.000067
    12   Atom        0.000589      0.000054      0.000047
    13   Atom       -0.012664      0.000043     -0.000011
    14   Atom       -0.056438      0.000046     -0.000055
 --------------------------------------------------------


 ---------------------------------------------------------------------------------
              Anisotropic Spin Dipole Couplings in Principal Axis System
 ---------------------------------------------------------------------------------

       Atom             a.u.   MegaHertz   Gauss  10(-4) cm-1        Axes

              Baa    -0.2920   -39.188   -13.983   -13.072  0.9293  0.3694 -0.0010
     1 C(13)  Bbb    -0.2709   -36.356   -12.973   -12.127 -0.3694  0.9293  0.0018
              Bcc     0.5630    75.544    26.956    25.199  0.0016 -0.0013  1.0000
 
              Baa    -0.3557   -47.731   -17.032   -15.921  0.0014 -0.0012  1.0000
     2 C(13)  Bbb     0.1579    21.185     7.559     7.066  0.8654 -0.5011 -0.0018
              Bcc     0.1978    26.547     9.473     8.855  0.5011  0.8654  0.0003
 
              Baa    -0.3794   -50.907   -18.165   -16.981  0.7075 -0.7067  0.0000
     3 C(13)  Bbb    -0.3387   -45.452   -16.218   -15.161  0.7067  0.7075  0.0013
              Bcc     0.7181    96.359    34.383    32.142 -0.0009 -0.0009  1.0000
 
              Baa    -0.2951   -39.597   -14.129   -13.208  0.9325 -0.3611 -0.0002
     4 C(13)  Bbb    -0.2738   -36.737   -13.109   -12.254  0.3611  0.9325 -0.0020
              Bcc     0.5688    76.334    27.238    25.462  0.0009  0.0018  1.0000
 
              Baa    -0.5658   -75.928   -27.093   -25.327 -0.0010  0.0010  1.0000
     5 C(13)  Bbb     0.2629    35.276    12.587    11.767 -0.0042  1.0000 -0.0010
              Bcc     0.3029    40.652    14.506    13.560  1.0000  0.0042  0.0010
 
              Baa    -0.3610   -48.446   -17.287   -16.160  0.0006  0.0005  1.0000
     6 C(13)  Bbb     0.1604    21.528     7.682     7.181  0.8608  0.5089 -0.0007
              Bcc     0.2006    26.918     9.605     8.979 -0.5089  0.8608 -0.0001
 
              Baa    -0.3797   -50.950   -18.180   -16.995  0.6949  0.7191  0.0003
     7 C(13)  Bbb    -0.3390   -45.495   -16.234   -15.175  0.7191 -0.6949  0.0008
              Bcc     0.7187    96.445    34.414    32.171 -0.0008  0.0004  1.0000
 
              Baa    -0.0426   -22.748    -8.117    -7.588  0.8563  0.5165 -0.0005
     8 H(1)   Bbb    -0.0032    -1.681    -0.600    -0.561  0.0017 -0.0018  1.0000
              Bcc     0.0458    24.429     8.717     8.149 -0.5165  0.8563  0.0024
 
              Baa    -0.0214   -11.423    -4.076    -3.810  0.9695 -0.2451 -0.0006
     9 H(1)   Bbb    -0.0070    -3.714    -1.325    -1.239  0.0004 -0.0011  1.0000
              Bcc     0.0284    15.137     5.401     5.049  0.2451  0.9695  0.0010
 
              Baa    -0.0575   -30.704   -10.956   -10.242 -0.6451  0.7641  0.0002
    10 H(1)   Bbb     0.0001     0.059     0.021     0.020 -0.0002 -0.0004  1.0000
              Bcc     0.0574    30.644    10.935    10.222  0.7641  0.6451  0.0004
 
              Baa    -0.0431   -23.000    -8.207    -7.672  0.8640 -0.5035  0.0002
    11 H(1)   Bbb    -0.0031    -1.663    -0.593    -0.555  0.0007  0.0016  1.0000
              Bcc     0.0462    24.663     8.800     8.227  0.5035  0.8640 -0.0017
 
              Baa    -0.0375   -19.995    -7.135    -6.670 -0.0072  1.0000 -0.0015
    12 H(1)   Bbb    -0.0067    -3.561    -1.271    -1.188 -0.0011  0.0015  1.0000
              Bcc     0.0441    23.556     8.405     7.857  1.0000  0.0072  0.0011
 
              Baa    -0.0218   -11.629    -4.150    -3.879  0.9658  0.2593 -0.0026
    13 H(1)   Bbb    -0.0070    -3.726    -1.329    -1.243  0.0024  0.0013  1.0000
              Bcc     0.0288    15.355     5.479     5.122 -0.2593  0.9658 -0.0006
 
              Baa    -0.0576   -30.741   -10.969   -10.254  0.6341  0.7732  0.0002
    14 H(1)   Bbb     0.0001     0.069     0.025     0.023 -0.0011  0.0006  1.0000
              Bcc     0.0575    30.672    10.945    10.231  0.7732 -0.6341  0.0012
 

 ---------------------------------------------------------------------------------

 Calling FoFJK, ICntrl=    100127 FMM=F ISym2X=0 I1Cent= 0 IOpClX= 1 NMat=1 NMatS=1 NMatT=0.
 Full mass-weighted force constant matrix:
 Low frequencies ---   -6.1322   -4.7179   -2.6451   -0.0012    0.0005    0.0006
 Low frequencies ---  145.6443  295.7495  435.6464
 Diagonal vibrational polarizability:
        0.6156270       0.3896858       9.2213515
 Diagonal vibrational hyperpolarizability:
       -0.0873495       5.7380492      -0.3719787
 Harmonic frequencies (cm**-1), IR intensities (KM/Mole), Raman scattering
 activities (A**4/AMU), depolarization ratios for plane and unpolarized
 incident light, reduced masses (AMU), force constants (mDyne/A),
 and normal coordinates:
                     1                      2                      3
                     A                      A                      A
 Frequencies --   145.6437               295.7494               435.6464
 Red. masses --     2.6101                 3.3241                 6.8656
 Frc consts  --     0.0326                 0.1713                 0.7677
 IR Inten    --     0.0000                 0.0614                 0.1919
 Raman Activ --     0.1574                 0.6888                 2.2332
 Depolar (P) --     0.7490                 0.7499                 0.7500
 Depolar (U) --     0.8565                 0.8571                 0.8571
  Atom  AN      X      Y      Z        X      Y      Z        X      Y      Z
     1   6     0.00   0.00   0.17     0.00   0.00   0.17    -0.22   0.20   0.00
     2   6     0.00   0.00   0.07     0.00   0.00  -0.21    -0.11   0.19   0.00
     3   6     0.00   0.00  -0.20     0.00   0.00  -0.07     0.25   0.23   0.00
     4   6     0.00   0.00  -0.17     0.00   0.00   0.17    -0.22  -0.21   0.00
     5   6     0.00   0.00   0.00     0.00   0.00   0.23     0.17   0.00   0.00
     6   6     0.00   0.00  -0.07     0.00   0.00  -0.21    -0.11  -0.19   0.00
     7   6     0.00   0.00   0.20     0.00   0.00  -0.06     0.25  -0.23   0.00
     8   1     0.00   0.00   0.46     0.00   0.00   0.20    -0.06   0.28   0.00
     9   1     0.00   0.00   0.24     0.00   0.00  -0.45    -0.17  -0.07   0.00
    10   1     0.00   0.00  -0.40     0.00   0.00  -0.06     0.28   0.19   0.00
    11   1     0.00   0.00  -0.46     0.00   0.00   0.20    -0.06  -0.28   0.00
    12   1     0.00   0.00   0.00     0.00   0.00   0.54    -0.13   0.00   0.00
    13   1     0.00   0.00  -0.24     0.00   0.00  -0.46    -0.17   0.07   0.00
    14   1     0.00   0.00   0.40     0.00   0.00  -0.06     0.28  -0.18   0.00
                     4                      5                      6
                     A                      A                      A
 Frequencies --   461.7621               535.2908               553.6964
 Red. masses --     6.7148                 2.5684                 2.6115
 Frc consts  --     0.8436                 0.4336                 0.4717
 IR Inten    --     0.4434                19.3063                 0.0018
 Raman Activ --     5.5461                 0.7096                 0.7168
 Depolar (P) --     0.7342                 0.7203                 0.7476
 Depolar (U) --     0.8467                 0.8374                 0.8556
  Atom  AN      X      Y      Z        X      Y      Z        X      Y      Z
     1   6     0.03   0.24   0.00     0.00   0.00   0.07     0.00   0.00   0.17
     2   6     0.33   0.01   0.00     0.00   0.00  -0.10     0.00   0.00  -0.19
     3   6     0.16  -0.08   0.00     0.00   0.00   0.18     0.00   0.00   0.09
     4   6    -0.04   0.24   0.00     0.00   0.00   0.08     0.00   0.00  -0.17
     5   6     0.00  -0.35   0.00     0.00   0.00  -0.20     0.00   0.00   0.00
     6   6    -0.33   0.01   0.00     0.00   0.00  -0.11     0.00   0.00   0.19
     7   6    -0.16  -0.08   0.00     0.00   0.00   0.19     0.00   0.00  -0.09
     8   1    -0.19   0.14   0.00     0.00   0.00  -0.23     0.00   0.00   0.50
     9   1     0.30  -0.12   0.00     0.00   0.00  -0.45     0.00   0.00  -0.24
    10   1    -0.02   0.15   0.00     0.00   0.00   0.23     0.00   0.00   0.35
    11   1     0.18   0.14   0.00     0.00   0.00  -0.22     0.00   0.00  -0.51
    12   1     0.00  -0.35   0.00     0.00   0.00  -0.50     0.00   0.00   0.00
    13   1    -0.30  -0.12   0.00     0.00   0.00  -0.45     0.00   0.00   0.23
    14   1     0.02   0.16   0.00     0.00   0.00   0.23     0.00   0.00  -0.34
                     7                      8                      9
                     A                      A                      A
 Frequencies --   667.4076               789.2052               796.4161
 Red. masses --     1.1202                 1.3683                 1.3154
 Frc consts  --     0.2940                 0.5021                 0.4916
 IR Inten    --   120.2779                 0.0005                 2.6615
 Raman Activ --     0.0003                 0.2450                 0.0104
 Depolar (P) --     0.6129                 0.7495                 0.2303
 Depolar (U) --     0.7600                 0.8568                 0.3744
  Atom  AN      X      Y      Z        X      Y      Z        X      Y      Z
     1   6     0.00   0.00   0.01     0.00   0.00   0.10     0.00   0.00   0.05
     2   6     0.00   0.00   0.05     0.00   0.00   0.01     0.00   0.00   0.06
     3   6     0.00   0.00   0.01     0.00   0.00   0.08     0.00   0.00  -0.08
     4   6     0.00   0.00   0.01     0.00   0.00  -0.10     0.00   0.00   0.05
     5   6     0.00   0.00   0.08     0.00   0.00   0.00     0.00   0.00  -0.03
     6   6     0.00   0.00   0.05     0.00   0.00  -0.02     0.00   0.00   0.06
     7   6     0.00   0.00   0.01     0.00   0.00  -0.08     0.00   0.00  -0.09
     8   1     0.00   0.00  -0.32     0.00   0.00  -0.28     0.00   0.00  -0.54
     9   1     0.00   0.00  -0.22     0.00   0.00  -0.35     0.00   0.00  -0.18
    10   1     0.00   0.00  -0.55     0.00   0.00  -0.53     0.00   0.00   0.32
    11   1     0.00   0.00  -0.33     0.00   0.00   0.32     0.00   0.00  -0.53
    12   1     0.00   0.00  -0.29     0.00   0.00  -0.01     0.00   0.00   0.34
    13   1     0.00   0.00  -0.22     0.00   0.00   0.36     0.00   0.00  -0.16
    14   1     0.00   0.00  -0.55     0.00   0.00   0.51     0.00   0.00   0.36
                    10                     11                     12
                     A                      A                      A
 Frequencies --   834.3639               862.8889               940.0987
 Red. masses --     5.9670                 1.4465                 6.8688
 Frc consts  --     2.4475                 0.6346                 3.5766
 IR Inten    --     0.4474                 0.0013                 0.0002
 Raman Activ --     7.4789                 1.3304                12.8625
 Depolar (P) --     0.1103                 0.7473                 0.7363
 Depolar (U) --     0.1986                 0.8554                 0.8482
  Atom  AN      X      Y      Z        X      Y      Z        X      Y      Z
     1   6     0.21  -0.22   0.00     0.00   0.00  -0.10    -0.18   0.18   0.00
     2   6     0.26  -0.03   0.00     0.00   0.00  -0.03     0.30   0.17   0.00
     3   6     0.11   0.12   0.00     0.00   0.00   0.09    -0.03  -0.26   0.00
     4   6    -0.21  -0.22   0.00     0.00   0.00   0.10    -0.23  -0.20   0.00
     5   6     0.00   0.27   0.00     0.00   0.00   0.00    -0.17  -0.03   0.00
     6   6    -0.26  -0.04   0.00     0.00   0.00   0.03     0.30  -0.10   0.00
     7   6    -0.11   0.12   0.00     0.00   0.00  -0.09     0.03   0.24   0.00
     8   1     0.22  -0.23  -0.01     0.00   0.00   0.47    -0.17   0.18   0.00
     9   1     0.31   0.10   0.00     0.00   0.00   0.20     0.29   0.10   0.01
    10   1     0.12   0.12   0.01     0.00   0.00  -0.47    -0.25   0.01   0.00
    11   1    -0.22  -0.23   0.01     0.00   0.00  -0.47    -0.29  -0.18   0.00
    12   1     0.00   0.28   0.00     0.00   0.00   0.00     0.19  -0.03   0.00
    13   1    -0.31   0.09   0.00     0.00   0.00  -0.19     0.26   0.09   0.00
    14   1    -0.12   0.12  -0.01     0.00   0.00   0.47    -0.15   0.01   0.00
                    13                     14                     15
                     A                      A                      A
 Frequencies --   947.5129               969.7042               994.9005
 Red. masses --     2.8892                 5.2947                 1.3104
 Frc consts  --     1.5283                 2.9334                 0.7642
 IR Inten    --     0.0535                 2.0157                 0.0713
 Raman Activ --    12.4350                 3.0894                 0.0942
 Depolar (P) --     0.2892                 0.0887                 0.5339
 Depolar (U) --     0.4487                 0.1629                 0.6961
  Atom  AN      X      Y      Z        X      Y      Z        X      Y      Z
     1   6     0.15  -0.08   0.00    -0.01   0.13   0.00     0.00  -0.01   0.00
     2   6    -0.02   0.14   0.00     0.15  -0.10   0.00     0.01   0.00   0.00
     3   6    -0.15  -0.03   0.00    -0.27  -0.17   0.00     0.01   0.01  -0.06
     4   6    -0.12  -0.04   0.00     0.01   0.13   0.00     0.00   0.01   0.00
     5   6     0.01  -0.16   0.00     0.00   0.29   0.00    -0.01   0.00   0.14
     6   6    -0.04   0.16   0.00    -0.15  -0.10   0.00     0.01   0.00   0.00
     7   6     0.16  -0.07   0.00     0.27  -0.17   0.00     0.01  -0.01  -0.06
     8   1     0.32   0.00   0.00    -0.33  -0.01   0.00    -0.02  -0.02   0.02
     9   1     0.05   0.48   0.00     0.19   0.09   0.00     0.01   0.00  -0.04
    10   1    -0.25   0.07   0.00    -0.18  -0.29   0.00     0.00   0.02   0.33
    11   1    -0.29   0.04   0.00     0.32  -0.01   0.00    -0.02   0.02   0.03
    12   1    -0.02  -0.17   0.00     0.00   0.29   0.00    -0.04   0.00  -0.86
    13   1    -0.10   0.46   0.00    -0.19   0.09   0.00     0.01   0.00  -0.04
    14   1     0.29   0.08   0.00     0.18  -0.29   0.00     0.00  -0.02   0.33
                    16                     17                     18
                     A                      A                      A
 Frequencies --   996.0037              1013.9378              1047.8051
 Red. masses --     2.6818                 3.6438                 1.2754
 Frc consts  --     1.5675                 2.2071                 0.8250
 IR Inten    --     1.0723                11.8128                 0.0021
 Raman Activ --     1.7997                44.0148                 1.3524
 Depolar (P) --     0.7500                 0.7500                 0.7462
 Depolar (U) --     0.8571                 0.8571                 0.8546
  Atom  AN      X      Y      Z        X      Y      Z        X      Y      Z
     1   6     0.06   0.16   0.00    -0.01   0.16   0.00     0.00   0.00   0.05
     2   6    -0.10   0.01   0.00     0.10  -0.24   0.00     0.00   0.00  -0.09
     3   6    -0.09  -0.11  -0.01    -0.08   0.14   0.00     0.00   0.00   0.02
     4   6     0.06  -0.16   0.00    -0.01  -0.17   0.00     0.00   0.00  -0.05
     5   6     0.18   0.00   0.02     0.02   0.00   0.00     0.00   0.00   0.00
     6   6    -0.10  -0.01   0.00     0.09   0.24   0.00     0.00   0.00   0.10
     7   6    -0.09   0.11  -0.01    -0.07  -0.14   0.00     0.00   0.00  -0.02
     8   1     0.33   0.29   0.01     0.00   0.16   0.01     0.00   0.00  -0.32
     9   1    -0.10   0.06  -0.01     0.05  -0.48  -0.02     0.00   0.00   0.57
    10   1     0.00  -0.24   0.05    -0.19   0.28   0.00     0.00   0.00  -0.09
    11   1     0.33  -0.28   0.01    -0.02  -0.16   0.01     0.00   0.00   0.36
    12   1     0.55   0.00  -0.13    -0.11  -0.01  -0.01     0.00   0.00   0.01
    13   1    -0.10  -0.05  -0.01     0.04   0.50  -0.01     0.00   0.00  -0.63
    14   1     0.00   0.24   0.05    -0.17  -0.27   0.00     0.00   0.00   0.10
                    19                     20                     21
                     A                      A                      A
 Frequencies --  1062.6511              1220.7530              1287.8928
 Red. masses --     1.2779                 1.6710                 1.4557
 Frc consts  --     0.8502                 1.4672                 1.4226
 IR Inten    --     0.3373                 0.0071                 0.0702
 Raman Activ --     2.8838                 8.8570                 0.4315
 Depolar (P) --     0.7438                 0.3197                 0.7486
 Depolar (U) --     0.8531                 0.4845                 0.8562
  Atom  AN      X      Y      Z        X      Y      Z        X      Y      Z
     1   6     0.00   0.00   0.06     0.04   0.03   0.00    -0.03  -0.04   0.00
     2   6     0.00   0.00  -0.10    -0.03   0.06   0.00     0.03   0.03   0.00
     3   6     0.00   0.00   0.01     0.09  -0.11   0.00    -0.06   0.06   0.00
     4   6     0.00   0.00   0.06    -0.05   0.03   0.00    -0.03   0.04   0.00
     5   6     0.00   0.00   0.02     0.00   0.07   0.00     0.14   0.00   0.00
     6   6     0.00   0.00  -0.09     0.03   0.06   0.00     0.03  -0.03   0.00
     7   6     0.00   0.00   0.01    -0.09  -0.11   0.00    -0.06  -0.06   0.00
     8   1     0.00   0.00  -0.37     0.24   0.13   0.00    -0.27  -0.15   0.00
     9   1     0.00   0.00   0.62    -0.02   0.14   0.00     0.08   0.25   0.00
    10   1     0.00   0.00  -0.06     0.38  -0.48   0.00    -0.23   0.27   0.00
    11   1     0.00   0.00  -0.33    -0.24   0.12   0.00    -0.27   0.15   0.00
    12   1     0.00   0.00  -0.12     0.00   0.07   0.00     0.62   0.00   0.00
    13   1     0.00   0.00   0.57     0.01   0.14   0.00     0.08  -0.25   0.00
    14   1     0.00   0.00  -0.05    -0.38  -0.49   0.00    -0.23  -0.27   0.00
                    22                     23                     24
                     A                      A                      A
 Frequencies --  1363.2606              1417.9887              1516.5736
 Red. masses --     1.0844                 1.1919                 1.2193
 Frc consts  --     1.1874                 1.4119                 1.6523
 IR Inten    --     0.1834                 1.5474                 0.1333
 Raman Activ --     6.4614                 7.1011                 0.0041
 Depolar (P) --     0.1376                 0.7498                 0.7499
 Depolar (U) --     0.2419                 0.8570                 0.8571
  Atom  AN      X      Y      Z        X      Y      Z        X      Y      Z
     1   6     0.03   0.03   0.00     0.01  -0.04   0.00     0.05   0.02   0.00
     2   6     0.00  -0.03   0.00    -0.03   0.04   0.00     0.01   0.05   0.00
     3   6    -0.03  -0.01   0.00     0.04  -0.03   0.00    -0.03   0.04   0.00
     4   6    -0.03   0.03   0.00     0.01   0.04   0.00     0.05  -0.02   0.00
     5   6     0.00   0.02   0.00    -0.06   0.00   0.00    -0.05   0.00   0.00
     6   6     0.00  -0.03   0.00    -0.03  -0.04   0.00     0.01  -0.05   0.00
     7   6     0.03  -0.01   0.00     0.04   0.03   0.00    -0.03  -0.04   0.00
     8   1     0.50   0.26   0.00     0.23   0.06   0.00    -0.35  -0.16   0.00
     9   1    -0.07  -0.39   0.00    -0.12  -0.42   0.00    -0.08  -0.38   0.00
    10   1    -0.11   0.10   0.00    -0.25   0.34   0.00     0.22  -0.28   0.00
    11   1    -0.50   0.25   0.00     0.23  -0.06   0.00    -0.35   0.16   0.00
    12   1     0.00   0.02   0.00     0.38   0.00   0.00     0.37   0.00   0.00
    13   1     0.08  -0.39   0.00    -0.13   0.41   0.00    -0.09   0.38   0.00
    14   1     0.11   0.10   0.00    -0.25  -0.34   0.00     0.22   0.28   0.00
                    25                     26                     27
                     A                      A                      A
 Frequencies --  1568.7328              1583.6701              1603.1034
 Red. masses --     1.4068                 1.4498                 2.3270
 Frc consts  --     2.0398                 2.1423                 3.5234
 IR Inten    --     5.7948                 2.5945                 0.7885
 Raman Activ --    13.0173                 2.8730                37.4280
 Depolar (P) --     0.5727                 0.7494                 0.7145
 Depolar (U) --     0.7283                 0.8568                 0.8335
  Atom  AN      X      Y      Z        X      Y      Z        X      Y      Z
     1   6     0.08  -0.01   0.00     0.06   0.04   0.00     0.05   0.04   0.00
     2   6     0.00   0.10   0.00    -0.03   0.05   0.00     0.01  -0.10   0.00
     3   6    -0.03  -0.01   0.00     0.00  -0.07   0.00    -0.11   0.16   0.00
     4   6    -0.08  -0.02   0.00     0.06  -0.04   0.00    -0.05   0.03   0.00
     5   6     0.00  -0.01   0.00     0.12   0.00   0.00     0.00  -0.13   0.00
     6   6     0.00   0.10   0.00    -0.03  -0.04   0.00    -0.01  -0.10   0.00
     7   6     0.03  -0.01   0.00    -0.01   0.07   0.00     0.10   0.17   0.00
     8   1    -0.30  -0.20   0.00    -0.35  -0.15   0.00     0.06   0.04   0.00
     9   1    -0.14  -0.56   0.00    -0.09  -0.18   0.00     0.04   0.02   0.00
    10   1     0.06  -0.13   0.00    -0.24   0.20   0.00     0.41  -0.49   0.00
    11   1     0.30  -0.20   0.00    -0.35   0.15   0.00    -0.08   0.04   0.00
    12   1     0.00  -0.01   0.00    -0.64   0.00   0.00    -0.01  -0.14   0.00
    13   1     0.15  -0.55   0.00    -0.09   0.18   0.00    -0.05   0.02   0.00
    14   1    -0.06  -0.13   0.00    -0.22  -0.19   0.00    -0.42  -0.51   0.00
                    28                     29                     30
                     A                      A                      A
 Frequencies --  1662.2300              1720.7684              3287.5474
 Red. masses --     2.5233                 5.3356                 1.0846
 Frc consts  --     4.1077                 9.3085                 6.9067
 IR Inten    --     0.8245                 0.0046                 0.3831
 Raman Activ --    52.3298                42.3336                13.6636
 Depolar (P) --     0.7498                 0.0375                 0.1253
 Depolar (U) --     0.8570                 0.0722                 0.2227
  Atom  AN      X      Y      Z        X      Y      Z        X      Y      Z
     1   6    -0.08  -0.10   0.00     0.32   0.16   0.00     0.00  -0.01   0.00
     2   6     0.09   0.09   0.00    -0.18  -0.18   0.00    -0.03   0.01   0.00
     3   6    -0.12   0.04   0.00     0.08  -0.03   0.00     0.03   0.02   0.00
     4   6    -0.09   0.11   0.00    -0.32   0.15   0.00     0.00  -0.01   0.00
     5   6     0.19   0.00   0.00     0.00   0.03   0.00     0.00  -0.05   0.00
     6   6     0.09  -0.09   0.00     0.18  -0.17   0.00     0.03   0.01   0.00
     7   6    -0.12  -0.04   0.00    -0.07  -0.03   0.00    -0.03   0.02   0.00
     8   1     0.37   0.09   0.00    -0.31  -0.13   0.00    -0.04   0.09   0.00
     9   1     0.00  -0.38   0.00    -0.12   0.21   0.00     0.34  -0.07   0.00
    10   1     0.08  -0.22   0.00    -0.20   0.33   0.00    -0.31  -0.25   0.00
    11   1     0.38  -0.09   0.00     0.29  -0.12   0.00     0.04   0.09   0.00
    12   1    -0.38   0.00   0.00     0.01   0.04   0.00     0.00   0.65   0.00
    13   1     0.00   0.39   0.00     0.12   0.19   0.00    -0.34  -0.08   0.00
    14   1     0.08   0.23   0.00     0.19   0.32   0.00     0.30  -0.24   0.00
                    31                     32                     33
                     A                      A                      A
 Frequencies --  3289.4433              3297.9214              3308.3256
 Red. masses --     1.0842                 1.0879                 1.0875
 Frc consts  --     6.9119                 6.9716                 7.0131
 IR Inten    --     1.9457                 3.8401                 1.5857
 Raman Activ --     3.6730               143.0184                98.8759
 Depolar (P) --     0.7488                 0.7487                 0.7499
 Depolar (U) --     0.8563                 0.8563                 0.8571
  Atom  AN      X      Y      Z        X      Y      Z        X      Y      Z
     1   6     0.01  -0.03   0.00     0.01  -0.02   0.00     0.02  -0.04   0.00
     2   6    -0.04   0.01   0.00    -0.04   0.01   0.00     0.02   0.00   0.00
     3   6     0.01   0.01   0.00     0.00   0.00   0.00    -0.03  -0.02   0.00
     4   6     0.01   0.03   0.00    -0.01  -0.02   0.00     0.02   0.04   0.00
     5   6     0.00   0.00   0.00     0.00   0.05   0.00     0.00   0.00   0.00
     6   6    -0.05  -0.01   0.00     0.04   0.01   0.00     0.02   0.00   0.00
     7   6     0.01  -0.01   0.00     0.00   0.00   0.00    -0.03   0.02   0.00
     8   1    -0.17   0.35   0.00    -0.10   0.21   0.00    -0.22   0.47   0.00
     9   1     0.53  -0.11   0.00     0.52  -0.11   0.00    -0.19   0.04   0.00
    10   1    -0.18  -0.14   0.00     0.04   0.04   0.00     0.35   0.28   0.00
    11   1    -0.16  -0.36   0.00     0.09   0.20   0.00    -0.21  -0.47   0.00
    12   1     0.00   0.00   0.00     0.00  -0.58   0.00     0.00   0.01   0.00
    13   1     0.53   0.12   0.00    -0.51  -0.11   0.00    -0.18  -0.04   0.00
    14   1    -0.18   0.14   0.00    -0.04   0.04   0.00     0.34  -0.27   0.00
                    34                     35                     36
                     A                      A                      A
 Frequencies --  3321.3439              3322.9083              3333.0539
 Red. masses --     1.0920                 1.0912                 1.0937
 Frc consts  --     7.0973                 7.0989                 7.1587
 IR Inten    --    74.2585                68.9845                 1.8179
 Raman Activ --     2.4502                14.8134               484.3230
 Depolar (P) --     0.7053                 0.2473                 0.1258
 Depolar (U) --     0.8272                 0.3966                 0.2235
  Atom  AN      X      Y      Z        X      Y      Z        X      Y      Z
     1   6     0.01  -0.02   0.00    -0.02   0.04   0.00     0.02  -0.04   0.00
     2   6     0.04  -0.01   0.00     0.00   0.00   0.00     0.03  -0.01   0.00
     3   6     0.03   0.03   0.00     0.03   0.02   0.00     0.02   0.02   0.00
     4   6     0.01   0.02   0.00     0.02   0.03   0.00    -0.02  -0.04   0.00
     5   6     0.00   0.00   0.00     0.00   0.04   0.00     0.00   0.02   0.00
     6   6     0.03   0.01   0.00     0.00   0.00   0.00    -0.03  -0.01   0.00
     7   6     0.03  -0.03   0.00    -0.03   0.02   0.00    -0.03   0.02   0.00
     8   1    -0.10   0.23   0.00     0.20  -0.41   0.00    -0.21   0.44   0.00
     9   1    -0.40   0.09   0.00     0.03   0.00   0.00    -0.30   0.06   0.00
    10   1    -0.41  -0.33   0.00    -0.33  -0.26   0.00    -0.28  -0.23   0.00
    11   1    -0.12  -0.28   0.00    -0.18  -0.39   0.00     0.20   0.44   0.00
    12   1     0.01  -0.03   0.00     0.00  -0.42   0.00     0.00  -0.25   0.00
    13   1    -0.39  -0.09   0.00     0.01   0.01   0.00     0.31   0.07   0.00
    14   1    -0.37   0.29   0.00     0.39  -0.30   0.00     0.29  -0.23   0.00

 -------------------
 - Thermochemistry -
 -------------------
 Temperature   298.150 Kelvin.  Pressure   1.00000 Atm.
 Atom     1 has atomic number  6 and mass  12.00000
 Atom     2 has atomic number  6 and mass  12.00000
 Atom     3 has atomic number  6 and mass  12.00000
 Atom     4 has atomic number  6 and mass  12.00000
 Atom     5 has atomic number  6 and mass  12.00000
 Atom     6 has atomic number  6 and mass  12.00000
 Atom     7 has atomic number  6 and mass  12.00000
 Atom     8 has atomic number  1 and mass   1.00783
 Atom     9 has atomic number  1 and mass   1.00783
 Atom    10 has atomic number  1 and mass   1.00783
 Atom    11 has atomic number  1 and mass   1.00783
 Atom    12 has atomic number  1 and mass   1.00783
 Atom    13 has atomic number  1 and mass   1.00783
 Atom    14 has atomic number  1 and mass   1.00783
 Molecular mass:    91.05478 amu.
 Principal axes and moments of inertia in atomic units:
                           1         2         3
     Eigenvalues --   484.04025 489.27071 973.31034
           X            1.00000  -0.00012  -0.00004
           Y            0.00012   1.00000  -0.00002
           Z            0.00004   0.00002   1.00000
 This molecule is an asymmetric top.
 Rotational symmetry number  1.
 Warning -- assumption of classical behavior for rotation
           may cause significant error
 Rotational temperatures (Kelvin)      0.17894     0.17703     0.08899
 Rotational constants (GHZ):           3.72849     3.68864     1.85423
 Zero-point vibrational energy     313757.8 (Joules/Mol)
                                   74.98990 (Kcal/Mol)
 Warning -- explicit consideration of   6 degrees of freedom as
           vibrations may cause significant error
 Vibrational temperatures:    209.55   425.52   626.80   664.37   770.16
          (Kelvin)            796.64   960.25  1135.49  1145.86  1200.46
                             1241.50  1352.59  1363.26  1395.19  1431.44
                             1433.03  1458.83  1507.56  1528.92  1756.39
                             1852.99  1961.43  2040.17  2182.01  2257.05
                             2278.55  2306.51  2391.58  2475.80  4730.04
                             4732.77  4744.97  4759.94  4778.67  4780.92
                             4795.52
 
 Zero-point correction=                           0.119504 (Hartree/Particle)
 Thermal correction to Energy=                    0.125113
 Thermal correction to Enthalpy=                  0.126057
 Thermal correction to Gibbs Free Energy=         0.089629
 Sum of electronic and zero-point Energies=           -269.043870
 Sum of electronic and thermal Energies=              -269.038261
 Sum of electronic and thermal Enthalpies=            -269.037317
 Sum of electronic and thermal Free Energies=         -269.073745
 
                     E (Thermal)             CV                S
                      KCal/Mol        Cal/Mol-Kelvin    Cal/Mol-Kelvin
 Total                   78.509             21.892             76.670
 Electronic               0.000              0.000              1.377
 Translational            0.889              2.981             39.439
 Rotational               0.889              2.981             26.936
 Vibrational             76.732             15.931              8.918
 Vibration     1          0.617              1.907              2.728
 Vibration     2          0.690              1.682              1.441
 Vibration     3          0.796              1.393              0.840
 Vibration     4          0.819              1.335              0.761
 Vibration     5          0.890              1.172              0.576
 Vibration     6          0.909              1.132              0.537
                       Q            Log10(Q)             Ln(Q)
 Total Bot       0.594065D-41        -41.226166        -94.926756
 Total V=0       0.551760D+14         13.741750         31.641549
 Vib (Bot)       0.506066D-54        -54.295793       -125.020684
 Vib (Bot)    1  0.139395D+01          0.144248          0.332143
 Vib (Bot)    2  0.644563D+00         -0.190734         -0.439182
 Vib (Bot)    3  0.398187D+00         -0.399913         -0.920834
 Vib (Bot)    4  0.367808D+00         -0.434378         -1.000193
 Vib (Bot)    5  0.297296D+00         -0.526811         -1.213028
 Vib (Bot)    6  0.282420D+00         -0.549104         -1.264358
 Vib (V=0)       0.470028D+01          0.672123          1.547621
 Vib (V=0)    1  0.198091D+01          0.296865          0.683558
 Vib (V=0)    2  0.131576D+01          0.119176          0.274413
 Vib (V=0)    3  0.113918D+01          0.056593          0.130310
 Vib (V=0)    4  0.112071D+01          0.049494          0.113964
 Vib (V=0)    5  0.108171D+01          0.034110          0.078542
 Vib (V=0)    6  0.107425D+01          0.031105          0.071621
 Electronic      0.200000D+01          0.301030          0.693147
 Translational   0.341515D+08          7.533409         17.346316
 Rotational      0.171865D+06          5.235187         12.054465
 ***** Axes restored to original set *****
 -------------------------------------------------------------------
 Center     Atomic                   Forces (Hartrees/Bohr)
 Number     Number              X              Y              Z
 -------------------------------------------------------------------
      1        6          -0.000122801   -0.000000222   -0.000035276
      2        6           0.000224539    0.000126244    0.000118851
      3        6          -0.000049683   -0.000351110   -0.000202296
      4        6           0.000031765    0.000103109   -0.000021509
      5        6          -0.000117486    0.000285951    0.000061718
      6        6          -0.000117716   -0.000153187    0.000132389
      7        6           0.000143473   -0.000019914   -0.000093810
      8        1          -0.000000491   -0.000021957    0.000011897
      9        1           0.000004836   -0.000017954   -0.000000784
     10        1           0.000012370    0.000013255    0.000002142
     11        1          -0.000014045    0.000010003   -0.000014379
     12        1           0.000018597   -0.000026112    0.000063917
     13        1          -0.000010740    0.000010889   -0.000031164
     14        1          -0.000002620    0.000041007    0.000008302
 -------------------------------------------------------------------
 Cartesian Forces:  Max     0.000351110 RMS     0.000105726

 GradGradGradGradGradGradGradGradGradGradGradGradGradGradGradGradGradGrad
 Berny optimization.
 Internal  Forces:  Max     0.000250874 RMS     0.000048022
 Search for a local minimum.
 Step number   1 out of a maximum of    2
 All quantities printed in internal units (Hartrees-Bohrs-Radians)
 Second derivative matrix not updated -- analytic derivatives used.
     Eigenvalues ---    0.00342   0.01251   0.01324   0.01467   0.01827
     Eigenvalues ---    0.01913   0.02044   0.02483   0.02786   0.02864
     Eigenvalues ---    0.03007   0.11863   0.12998   0.13111   0.13547
     Eigenvalues ---    0.14712   0.15258   0.15280   0.16396   0.17871
     Eigenvalues ---    0.18460   0.19954   0.22040   0.31939   0.36691
     Eigenvalues ---    0.37995   0.38427   0.38603   0.38640   0.38852
     Eigenvalues ---    0.38860   0.38994   0.39514   0.45679   0.46933
     Eigenvalues ---    0.547481000.000001000.000001000.000001000.00000
     Eigenvalues --- 1000.000001000.000001000.000001000.000001000.00000
     Eigenvalues --- 1000.000001000.000001000.000001000.000001000.00000
     Eigenvalues --- 1000.000001000.000001000.000001000.000001000.00000
     Eigenvalues --- 1000.000001000.000001000.000001000.000001000.00000
     Eigenvalues --- 1000.000001000.000001000.00000
 Angle between quadratic step and forces=  67.45 degrees.
 Linear search not attempted -- first point.
 Iteration  1 RMS(Cart)=  0.00142137 RMS(Int)=  0.00000114
 Iteration  2 RMS(Cart)=  0.00000144 RMS(Int)=  0.00000042
 Iteration  3 RMS(Cart)=  0.00000000 RMS(Int)=  0.00000042
 Variable       Old X    -DE/DX   Delta X   Delta X   Delta X     New X
                                 (Linear)    (Quad)   (Total)
    R1        2.55442   0.00014   0.00000   0.00085   0.00085   2.55527
    R2        2.80523   0.00003   0.00000   0.00009   0.00009   2.80532
    R3        2.03378   0.00002   0.00000   0.00002   0.00002   2.03380
    R4        2.71266  -0.00017   0.00000  -0.00105  -0.00105   2.71161
    R5        2.03659   0.00002   0.00000   0.00006   0.00006   2.03665
    R6        2.64137   0.00025   0.00000   0.00111   0.00111   2.64248
    R7        2.03347   0.00001   0.00000   0.00002   0.00002   2.03349
    R8        2.55595  -0.00008   0.00000  -0.00068  -0.00068   2.55527
    R9        2.03375   0.00001   0.00000   0.00005   0.00005   2.03380
   R10        2.64314  -0.00006   0.00000  -0.00066  -0.00066   2.64248
   R11        2.03662   0.00001   0.00000   0.00002   0.00002   2.03664
   R12        2.71083   0.00010   0.00000   0.00079   0.00079   2.71161
   R13        2.03664   0.00001   0.00000   0.00001   0.00001   2.03665
   R14        2.03338   0.00004   0.00000   0.00011   0.00011   2.03349
    A1        2.23660   0.00000   0.00000  -0.00013  -0.00013   2.23648
    A2        2.04260  -0.00001   0.00000  -0.00005  -0.00005   2.04255
    A3        2.00398   0.00001   0.00000   0.00017   0.00017   2.00416
    A4        2.25525   0.00000   0.00000   0.00007   0.00007   2.25532
    A5        2.02451  -0.00001   0.00000  -0.00023  -0.00023   2.02427
    A6        2.00343   0.00000   0.00000   0.00016   0.00016   2.00359
    A7        2.23436  -0.00001   0.00000  -0.00002  -0.00002   2.23433
    A8        2.01901   0.00002   0.00000   0.00033   0.00033   2.01934
    A9        2.02982  -0.00001   0.00000  -0.00030  -0.00030   2.02952
   A10        2.23633   0.00002   0.00000   0.00015   0.00015   2.23648
   A11        2.00424   0.00000   0.00000  -0.00008  -0.00008   2.00416
   A12        2.04261  -0.00002   0.00000  -0.00006  -0.00006   2.04255
   A13        2.25575  -0.00001   0.00000  -0.00005  -0.00005   2.25570
   A14        2.01397  -0.00001   0.00000  -0.00023  -0.00023   2.01374
   A15        2.01346   0.00002   0.00000   0.00028   0.00028   2.01374
   A16        2.25539  -0.00001   0.00000  -0.00007  -0.00007   2.25532
   A17        2.02415   0.00000   0.00000   0.00012   0.00012   2.02427
   A18        2.00365   0.00001   0.00000  -0.00006  -0.00006   2.00359
   A19        2.23428   0.00001   0.00000   0.00006   0.00006   2.23433
   A20        2.02941   0.00000   0.00000   0.00011   0.00011   2.02952
   A21        2.01950  -0.00001   0.00000  -0.00017  -0.00017   2.01934
    D1        0.00003  -0.00002   0.00000  -0.00003  -0.00003   0.00000
    D2        3.14147  -0.00001   0.00000   0.00011   0.00011   3.14159
    D3        3.14103  -0.00001   0.00000   0.00056   0.00056   3.14159
    D4       -0.00071   0.00000   0.00000   0.00071   0.00071   0.00000
    D5        0.00329  -0.00001   0.00000  -0.00330  -0.00330   0.00000
    D6       -3.13917   0.00000   0.00000  -0.00242  -0.00242  -3.14159
    D7       -3.13772  -0.00002   0.00000  -0.00388  -0.00388   3.14159
    D8        0.00300  -0.00001   0.00000  -0.00300  -0.00300   0.00000
    D9       -0.00335   0.00003   0.00000   0.00336   0.00336   0.00000
   D10        3.14052   0.00000   0.00000   0.00108   0.00108  -3.14159
   D11        3.13838   0.00002   0.00000   0.00321   0.00321  -3.14159
   D12       -0.00093  -0.00001   0.00000   0.00093   0.00093   0.00001
   D13        0.00271  -0.00002   0.00000  -0.00271  -0.00271   0.00000
   D14       -3.13822  -0.00004   0.00000  -0.00337  -0.00337  -3.14159
   D15       -3.14117   0.00001   0.00000  -0.00042  -0.00042  -3.14159
   D16        0.00108  -0.00002   0.00000  -0.00108  -0.00108   0.00000
   D17       -0.00258   0.00003   0.00000   0.00259   0.00259   0.00001
   D18        3.14089  -0.00001   0.00000   0.00071   0.00071  -3.14159
   D19        3.13990   0.00002   0.00000   0.00170   0.00170  -3.14159
   D20        0.00019  -0.00001   0.00000  -0.00018  -0.00018   0.00000
   D21        0.00001   0.00001   0.00000  -0.00001  -0.00001   0.00000
   D22        3.14152   0.00000   0.00000   0.00008   0.00008  -3.14159
   D23        3.14094   0.00004   0.00000   0.00065   0.00065   3.14159
   D24       -0.00074   0.00003   0.00000   0.00074   0.00074   0.00000
   D25       -0.00006  -0.00003   0.00000   0.00006   0.00006  -0.00001
   D26       -3.14157  -0.00001   0.00000  -0.00003  -0.00003   3.14158
   D27        3.13967   0.00001   0.00000   0.00192   0.00192   3.14159
   D28       -0.00184   0.00003   0.00000   0.00183   0.00183  -0.00001
         Item               Value     Threshold  Converged?
 Maximum Force            0.000251     0.000450     YES
 RMS     Force            0.000048     0.000300     YES
 Maximum Displacement     0.004953     0.001800     NO 
 RMS     Displacement     0.001421     0.001200     NO 
 Predicted change in Energy=-7.616790D-07
 GradGradGradGradGradGradGradGradGradGradGradGradGradGradGradGradGradGrad

 1|1|UNPC-LAPTOP-7BBBEH3F|Freq|UHF|6-311++G(d,p)|C7H7(2)|SAIF_|02-Aug-2
 025|0||#N Geom=AllCheck Guess=TCheck SCRF=Check GenChk UHF/6-311++G(d,
 p) Freq||Title Card Required||0,2|C,-2.9131957453,-0.26528727,-0.16463
 91837|C,-1.5614932565,-0.2558700792,-0.1609355643|C,-0.6622454987,0.81
 1758244,0.1739005614|C,-3.8388325603,0.8423649149,0.1816795803|C,-0.98
 12346994,2.1115842409,0.5769006221|C,-3.5278665192,2.0995327665,0.5718
 332143|C,-2.237797035,2.6985067118,0.7582835986|H,-3.3951614168,-1.183
 3524304,-0.4529748704|H,-1.0819053347,-1.1770126033,-0.4489808814|H,0.
 3857833627,0.5784014794,0.1024977292|H,-4.8842406227,0.5978661029,0.10
 70143368|H,-0.1387775107,2.7536214728,0.7758109653|H,-4.3622591179,2.7
 506212491,0.7753092161|H,-2.2419914256,3.7261936805,1.0771156756||Vers
 ion=IA32W-G09RevA.02|State=2-A|HF=-269.1633738|S2=1.240981|S2-1=0.|S2A
 =0.941665|RMSD=2.569e-009|RMSF=1.057e-004|ZeroPoint=0.119504|Thermal=0
 .1251128|Dipole=0.0150862,0.012142,0.0031161|DipoleDeriv=-0.1766484,0.
 1623445,0.0510876,0.0135239,0.21242,0.1158751,0.0046119,0.1165476,-0.1
 210154,0.0432706,-0.2032472,-0.0635282,0.0659882,0.060948,0.0552673,0.
 0211032,0.0547587,-0.0979247,0.179012,0.0065089,0.0028565,-0.1181747,-
 0.0090607,0.0495865,-0.0371511,0.0499934,-0.1534145,0.2673662,-0.08049
 54,-0.0257569,0.0678193,-0.1947438,-0.0117156,0.0206186,-0.0119146,-0.
 1614677,0.025519,0.1043749,0.0323589,0.1050279,-0.0310216,0.0183608,0.
 0327156,0.0180469,-0.0845024,0.0451045,0.0651905,0.0201621,-0.2026572,
 0.0604037,0.0545663,-0.0637807,0.0556522,-0.0971904,-0.0119066,-0.0769
 197,-0.0237972,0.0463605,0.1636312,0.1030199,0.0147194,0.1025147,-0.13
 73229,-0.0011445,-0.0499613,-0.0157877,-0.0603,-0.0884352,-0.0734471,-
 0.0190096,-0.0736835,0.1229986,0.0073831,0.071047,0.0221487,0.0703765,
 -0.0879176,-0.0690209,0.0217113,-0.0691541,0.1113551,-0.1289111,0.0337
 743,0.0101396,0.0328905,0.0311339,-0.0352959,0.0104394,-0.0354233,0.13
 35915,-0.1310116,-0.0320563,-0.0096897,-0.021621,0.0295766,-0.0362285,
 -0.0066545,-0.0363144,0.1348541,-0.0743676,-0.0869355,-0.0270908,-0.08
 70535,-0.019021,-0.0450313,-0.0271126,-0.0447076,0.1118734,-0.0715933,
 0.0875946,0.0273152,0.0882921,-0.01597,-0.0463374,0.0280923,-0.0468485
 ,0.1181992,0.0279277,-0.0012193,-0.000418,-0.0004727,-0.1119435,-0.079
 5993,-0.0003032,-0.0794674,0.119966|Polar=86.8632518,1.3908221,82.6790
 367,0.4510035,11.1547337,50.2929167|PolarDeriv=1.2537514,-1.757808,-14
 .8392416,-0.5351575,-3.1674915,-5.6104863,7.9952074,-4.1560475,7.51278
 32,0.1905116,2.588509,1.698088,2.469903,0.1960126,3.3070715,-4.6511566
 ,-0.5553133,-0.4284578,-9.6854395,9.0784033,11.4073657,2.8180622,2.786
 8064,3.3342627,-2.4238171,5.1915653,6.4562259,0.3152471,3.1229187,-0.4
 778709,-0.8966982,0.3313819,3.0756448,4.2627756,-0.7520077,-1.3816647,
 1.7257674,-3.5432846,-3.5369855,-1.1095438,-1.750773,1.5337614,4.39003
 83,-6.5808794,-1.0575689,-2.7962716,0.1454313,-0.0722896,1.622167,-2.8
 142767,0.6930168,1.519074,-1.1180048,-0.7250171,3.4826856,-3.0898982,9
 .1357179,-0.9719515,2.9192585,0.6245332,-16.4282399,2.4964294,-1.95566
 76,1.570153,2.0353416,-3.4745127,-4.9088428,1.5529584,2.0163255,-2.113
 4536,-2.9834612,-3.4985599,-4.8782335,1.6191489,-2.6551058,0.499053,-1
 .2074864,0.8627102,-1.320185,0.9331175,-3.9751221,-0.4320685,-2.082691
 4,0.1262776,-0.6606788,-0.4238309,-2.5577335,2.2198328,0.950127,1.0683
 866,12.9317456,3.0451044,-6.427962,0.943945,-1.6378992,-1.6221745,12.3
 248207,2.6557239,-8.876103,1.1530816,-4.916966,0.762207,3.5291059,1.18
 80296,-5.6247224,-0.6496586,2.2797288,2.7580174,-5.0300194,-5.5176972,
 7.2047057,-1.711257,2.1640218,0.8828426,-4.2716144,-0.7854867,1.678215
 1,-0.003906,-0.8711875,1.4447763,-1.0723682,-0.0253335,-0.8312614,-0.7
 922743,2.0505126,2.1185243,-2.6569879,-2.2204772,-2.9860871,-0.6975402
 ,-0.9368087,-0.2927701,-2.0865438,-3.2824796,-7.0862191,-1.1545405,-2.
 032911,-0.7603166,-0.6500956,-1.1658141,-1.9523408,0.0354986,-1.035078
 2,-0.5153027,2.4175007,-2.2236831,2.9308919,-0.6930334,0.9096115,0.301
 7457,-2.0332613,3.4041877,-7.3962646,1.1343972,-2.1207843,-0.7918664,-
 0.6240254,1.1407413,-2.0192002,0.1259113,-1.0534018,-0.514702,10.04118
 31,-1.8603705,1.0444789,-0.56761,0.2709787,0.250043,-1.6034176,1.36735
 11,-0.8341566,0.3160768,-0.2828934,-0.1080889,-0.5274442,0.3166565,-0.
 3479477,0.4444296,-0.0107831,0.0097896,-10.0542006,-2.2886119,-1.15131
 12,-0.7018839,-0.3021059,-0.2625965,-1.9755665,-1.3692086,-1.1555079,-
 0.3117158,-0.515047,-0.1656968,-0.6339415,-0.3034556,-0.6727112,-0.454
 0968,0.2569925,0.2293612,6.4734348,3.6997121,2.7113699,1.1495006,0.790
 9568,0.4094587,3.2923066,3.2081142,3.6032674,0.8772549,0.9898688,0.401
 3564,1.0435109,0.8728174,0.9541789,0.6544307,0.5720561,0.3108534,-5.81
 54854,3.9321077,-2.9241038,1.2279674,-0.8600519,-0.4384138,3.3758283,-
 3.0256281,3.6998868,-0.7893269,1.1717909,0.4264923,1.0988872,-0.800683
 8,1.2612327,-0.7471404,0.2725489,0.0862837,-0.2057023,1.1273543,0.0862
 67,0.349449,0.0209831,0.0270837,0.7644444,-0.0567592,9.3862315,-0.0688
 928,2.7686203,0.9914442,0.2105206,-0.0652032,2.6984472,0.1458277,1.126
 0842,0.482488|HyperPolar=-3.649798,-33.1662974,-19.2227609,10.5220489,
 -10.382893,-2.1341075,9.5005814,-13.1522683,-5.7280757,-7.7679598|PG=C
 01 [X(C7H7)]|NImag=0||0.75307340,0.01050257,0.61294515,0.00372307,0.15
 570584,0.16484171,-0.35654440,0.02319451,0.00703291,0.64013569,0.06686
 305,-0.12018334,-0.01991842,-0.08701922,0.62232026,0.02070767,-0.01993
 093,-0.06272232,-0.02681574,0.15142300,0.18568842,-0.05505499,-0.04127
 717,-0.01297888,-0.15643017,-0.08631802,-0.02716049,0.69974389,-0.1014
 4643,-0.00408454,-0.00362001,0.05097375,-0.18308558,-0.03975559,-0.036
 84002,0.57523816,-0.03171669,-0.00363430,0.00620445,0.01576683,-0.0397
 1468,-0.06873737,-0.01062732,0.14598354,0.15145498,-0.17051649,0.07454
 540,0.02334195,-0.02122558,0.02465718,0.00772953,-0.00091577,0.0088859
 6,0.00273634,0.67170918,0.15562080,-0.20902564,-0.04852193,-0.09728232
 ,-0.02108467,-0.00784559,0.01806335,0.05742960,0.01991903,0.02881694,0
 .68435150,0.04844956,-0.04842309,-0.06909990,-0.03020200,-0.00772774,0
 .00145387,0.00563458,0.01978666,-0.00014082,0.00833173,0.17703432,0.17
 069741,-0.04057069,0.00168228,0.00051758,0.06853415,0.00214833,0.00070
 938,-0.14715454,-0.02893822,-0.00909175,0.01843326,0.03896617,0.012048
 20,0.67933854,0.05181956,0.00842861,0.00294895,-0.07369563,-0.05336258
 ,-0.01701638,0.06855473,-0.24984683,-0.06156940,-0.01071236,-0.0464863
 5,-0.01409296,0.04941803,0.61055764,0.01611340,0.00293849,-0.00005075,
 -0.02293146,-0.01709020,-0.00393639,0.02120653,-0.06146996,-0.07042579
 ,-0.00330900,-0.01414277,-0.00537556,0.01554550,0.14935775,0.17507793,
 -0.03899185,0.02779137,0.00865679,0.06103918,0.02012466,0.00630648,-0.
 00713575,-0.04621691,-0.01440175,-0.11817690,0.01557875,0.00481790,-0.
 06835661,0.03208107,0.00995635,0.63031343,-0.09214208,-0.00532704,-0.0
 0276496,0.09234021,0.03129122,0.00972262,-0.01511942,-0.06142062,-0.01
 828882,-0.02973295,-0.33543882,-0.08684828,-0.04332066,0.07162656,0.02
 182158,-0.08361973,0.63184122,-0.02858908,-0.00292807,0.00292082,0.028
 65946,0.00961670,0.00328868,-0.00469995,-0.01818722,-0.00845383,-0.009
 20221,-0.08673667,-0.08329749,-0.01340433,0.02179238,0.00813771,-0.026
 26473,0.15372002,0.18592471,0.06541925,-0.00478874,-0.00150612,-0.0777
 5217,-0.03063853,-0.00957124,0.00747676,0.10188601,0.03166748,-0.03897
 594,-0.10498121,-0.03249071,-0.25301212,-0.00619289,-0.00206381,-0.203
 49443,0.05929325,0.01831535,0.60866440,0.00335110,-0.00399044,0.000690
 93,0.00030140,0.00318805,0.00185670,0.04165257,-0.02383357,-0.00933193
 ,-0.04461859,-0.01785956,-0.00778702,0.09129811,-0.15229388,-0.0312291
 2,-0.07706928,-0.14223395,-0.02677846,-0.01542025,0.65939238,0.0010373
 4,0.00073887,-0.00606053,0.00007586,0.00186327,-0.00224466,0.01290420,
 -0.00932672,0.00357383,-0.01382394,-0.00780777,0.00492710,0.02819423,-
 0.03129613,-0.06116599,-0.02400772,-0.02680717,-0.06443757,-0.00455056
 ,0.17169216,0.15920669,-0.12677558,-0.11320116,-0.03556047,-0.01273298
 ,-0.03349611,-0.01051486,-0.00512515,0.00165016,0.00050605,0.01180855,
 0.02375677,0.00744420,-0.00058019,0.00097426,0.00030339,-0.00415118,0.
 00105387,0.00033449,0.00081496,-0.00004189,-0.00001249,0.13591203,-0.1
 1450975,-0.28371030,-0.07807925,0.00253247,0.00261855,-0.00128688,0.00
 050344,0.00301925,-0.00201351,-0.01497627,-0.01856149,-0.00704278,0.00
 055611,-0.00017697,-0.00003731,0.00547181,-0.00137969,-0.00059116,-0.0
 0014340,0.00054510,0.00006945,0.12029477,0.29722864,-0.03603615,-0.078
 10405,-0.05955684,0.00085707,-0.00128074,0.00632984,0.00013389,-0.0020
 3143,0.00878767,-0.00469768,-0.00701412,0.00171294,0.00017630,-0.00003
 030,-0.00006646,0.00171658,-0.00056621,0.00029436,-0.00004983,0.000066
 85,0.00033324,0.03780945,0.08625918,0.04953461,-0.01322333,0.03483240,
 0.01089381,-0.12804644,0.10996602,0.03434682,0.01240615,-0.02056466,-0
 .00642362,-0.00463068,-0.00465101,-0.00146112,-0.00199731,-0.00325823,
 -0.00102528,0.00065340,0.00145298,0.00045030,-0.00126528,-0.00012868,-
 0.00004047,0.00058774,0.00002922,0.00001705,0.13515375,-0.00209828,0.0
 0277758,-0.00152251,0.11148501,-0.28241689,-0.07407940,0.01487667,-0.0
 1942930,-0.00770314,-0.00028068,0.00247322,-0.00256506,-0.00484583,-0.
 00123940,-0.00164882,-0.00023450,0.00041975,0.00016371,-0.00039424,0.0
 0040235,-0.00001400,-0.00013512,0.00099681,0.00273199,-0.11824648,0.29
 684042,-0.00057686,-0.00148008,0.00717666,0.03469960,-0.07412027,-0.06
 876622,0.00470668,-0.00766194,0.00285817,-0.00010235,-0.00260869,0.009
 84986,-0.00150599,-0.00166696,0.00346231,-0.00004732,0.00019281,-0.000
 05174,-0.00015633,-0.00001242,0.00044112,-0.00003698,0.00273760,-0.006
 87498,-0.03694375,0.08357504,0.05575380,-0.00021320,-0.00421482,-0.001
 32710,-0.01793338,0.00850999,0.00263366,-0.35181842,0.06296346,0.01921
 110,0.00066837,-0.00013817,-0.00004401,-0.00514524,-0.00166903,-0.0005
 2622,0.00017582,-0.00024904,-0.00007719,0.00218471,0.00116565,0.000355
 70,-0.00110987,0.00000350,0.00000195,0.00115886,-0.00058142,-0.0001761
 8,0.37105615,-0.00308624,-0.00430603,-0.00229867,-0.02745517,0.0085695
 6,0.00164277,0.06249393,-0.07964031,-0.01538273,0.00051905,0.00084736,
 0.00021504,0.03477050,-0.00367821,-0.00226798,-0.00118589,-0.00087926,
 -0.00027295,-0.00005163,-0.00485693,-0.00328626,-0.00121062,-0.0001200
 6,-0.00007750,0.00005042,0.00083744,0.00087428,-0.06635075,0.08331906,
 -0.00098227,-0.00229654,0.00231523,-0.00857023,0.00168517,0.00372420,0
 .01911117,-0.01539388,-0.03477001,0.00016199,0.00021895,0.00022034,0.0
 1079275,-0.00229923,0.00301374,-0.00036894,-0.00027908,-0.00008816,-0.
 00001386,-0.00328423,0.00471538,-0.00037874,-0.00007674,0.00010648,0.0
 0001604,0.00087827,-0.00168697,-0.02023195,0.01954623,0.02634500,-0.01
 712772,-0.00869249,-0.00269035,-0.00021222,0.00461196,0.00144844,0.000
 53703,-0.00008410,-0.00002453,-0.35110400,-0.06585717,-0.02007261,0.00
 014275,0.00039789,0.00012487,-0.00554010,0.00100270,0.00032626,0.00248
 846,-0.00116624,-0.00034968,0.00104020,0.00068346,0.00021227,-0.001156
 54,0.00000220,-0.00000399,-0.00007814,-0.00003223,-0.00001017,0.369736
 55,0.03007545,0.00784726,0.00120382,0.00018196,-0.00498894,-0.00170960
 ,0.00001783,0.00081458,0.00015742,-0.06454131,-0.07971603,-0.01388303,
 0.00082738,-0.00083863,-0.00024334,-0.03506576,-0.00389679,-0.00325107
 ,-0.00002230,-0.00396623,-0.00414073,-0.00044064,0.00093853,0.00014068
 ,0.00124941,-0.00020146,0.00007989,0.00002716,0.00015152,0.00007386,0.
 06956633,0.08453563,0.00938583,0.00124136,0.00426502,0.00004580,-0.001
 70098,-0.00006539,0.00001210,0.00015404,0.00035779,-0.01966429,-0.0138
 4978,-0.03908991,0.00023948,-0.00023597,-0.00013018,-0.01090654,-0.003
 33159,0.00563275,0.00002700,-0.00414020,0.00808266,-0.00013534,0.00014
 298,0.00052949,0.00039016,0.00007702,-0.00041524,0.00000850,0.00007367
 ,-0.00006156,0.02118897,0.01926415,0.02828406,-0.00067135,0.00051673,0
 .00016173,0.00162459,0.00172202,0.00053491,0.00851740,0.00688797,0.002
 14318,0.00036626,0.00074274,0.00022990,-0.24912120,-0.13619740,-0.0422
 3384,-0.00325404,0.00402378,0.00124910,-0.02193727,-0.02229535,-0.0069
 2273,0.00009044,-0.00009701,-0.00003009,0.00009096,0.00027245,0.000087
 32,0.00153740,0.00007073,0.00001983,-0.00002393,-0.00014100,-0.0000433
 6,0.26331745,0.00097275,0.00008373,-0.00002730,0.00294629,-0.00359950,
 -0.00328424,-0.02894003,-0.01611594,-0.00681469,0.00029664,-0.00088243
 ,-0.00032772,-0.13618818,-0.17172969,-0.04018409,0.00278801,0.00083684
 ,-0.00190291,0.01353355,0.01163532,0.00182552,-0.00016659,-0.00002029,
 0.00016993,-0.00097765,-0.00134204,-0.00022072,0.00034331,0.00038399,0
 .00142926,-0.00007183,0.00008436,0.00020114,0.14465189,0.17964749,0.00
 027754,-0.00003373,0.00016058,0.00093120,-0.00329202,0.00601927,-0.008
 96345,-0.00687545,0.00365239,0.00009511,-0.00031845,0.00008050,-0.0422
 3010,-0.04010375,-0.05446763,0.00085114,-0.00190765,0.00638945,0.00419
 283,0.00178945,0.00633694,-0.00005149,0.00017308,-0.00051851,-0.000298
 52,-0.00020798,-0.00072221,0.00011295,0.00143608,-0.00379341,-0.000023
 21,0.00020189,-0.00050285,0.04485375,0.04731792,0.04165430,0.00022423,
 -0.00135467,-0.00040996,0.00077184,-0.00025047,-0.00007887,0.00019048,
 -0.00072677,-0.00022512,0.00898210,-0.00689996,-0.00215006,-0.00360675
 ,-0.00448883,-0.00138586,-0.24650686,0.13717041,0.04288221,-0.02144001
 ,0.02227508,0.00694181,0.00006016,-0.00026398,-0.00008424,0.00011951,0
 .00009996,0.00003077,-0.00002890,0.00011977,0.00003703,0.00176261,-0.0
 0038310,-0.00012822,-0.00149466,0.00062027,0.00018849,0.25997223,-0.00
 572171,-0.00200549,-0.00392199,0.00144509,0.00033070,0.00013850,-0.000
 45398,-0.00094336,-0.00043177,0.02999883,-0.01741882,-0.00781490,-0.00
 290677,0.00024069,-0.00118226,0.13570552,-0.17453146,-0.04026285,-0.01
 318975,0.01141382,0.00192080,0.00098706,-0.00131170,-0.00027020,0.0002
 2065,-0.00003629,0.00025290,0.00006478,0.00008057,0.00011030,-0.000224
 79,-0.00005849,0.00236663,-0.00062993,0.00010406,0.00023435,-0.1453760
 5,0.18314545,-0.00171850,-0.00392118,0.00941510,0.00041790,0.00012246,
 -0.00007328,-0.00013775,-0.00040705,0.00031746,0.00928355,-0.00782181,
 0.00514743,-0.00088541,-0.00120539,0.00365738,0.04252254,-0.04022590,-
 0.05809220,-0.00417167,0.00189480,0.00585374,0.00030076,-0.00026075,-0
 .00052857,0.00006942,0.00025507,-0.00077233,0.00002066,0.00011085,-0.0
 0023993,-0.00008333,0.00236861,-0.00694029,-0.00019616,0.00023459,-0.0
 0058377,-0.04544599,0.04792888,0.04454639,0.00097272,0.00046378,0.0001
 4506,-0.00122811,-0.00088087,-0.00027570,-0.00523693,0.00156982,0.0004
 7981,-0.00642236,-0.00173569,-0.00053556,0.00309595,0.03296882,0.01022
 544,0.00342590,-0.03215332,-0.00997968,-0.06917131,0.00069637,0.000198
 46,0.00016087,-0.00008436,-0.00002657,0.00014922,0.00008025,0.00002537
 ,-0.00045417,0.00134813,0.00041735,-0.00046496,-0.00135141,-0.00042007
 ,0.00095796,0.00019157,0.00006377,0.00099402,0.00008103,0.00002399,0.0
 7322119,-0.00020079,0.00055050,0.00012550,0.00005166,0.00040317,0.0001
 2502,0.00278612,0.00189847,-0.00117503,-0.00285786,0.00137212,-0.00052
 345,-0.00346724,-0.01120096,-0.00462196,0.00385087,-0.01090796,-0.0043
 8145,0.00111013,-0.33754246,-0.09543130,-0.00002477,-0.00006638,0.0000
 0593,0.00002560,-0.00008219,0.00005856,0.00012537,-0.00070869,-0.00031
 233,-0.00013569,-0.00070529,-0.00026247,0.00047237,0.00091411,0.001586
 26,-0.00054166,0.00099032,0.00092683,-0.00119412,0.35508525,-0.0000748
 5,0.00012741,0.00019076,0.00003281,0.00013446,0.00004135,0.00085869,-0
 .00119500,0.00532109,-0.00088074,-0.00050474,0.00291423,-0.00110585,-0
 .00458261,0.00226968,0.00116922,-0.00443737,0.00183253,0.00037147,-0.0
 9542751,-0.05956197,-0.00000797,0.00000610,-0.00008328,0.00000917,0.00
 005981,-0.00025224,0.00003814,-0.00031285,0.00019967,-0.00004293,-0.00
 026254,0.00005366,0.00014647,0.00158331,-0.00370504,-0.00017197,0.0009
 3161,-0.00170712,-0.00034166,0.10387991,0.05248669||0.00012280,0.00000
 022,0.00003528,-0.00022454,-0.00012624,-0.00011885,0.00004968,0.000351
 11,0.00020230,-0.00003177,-0.00010311,0.00002151,0.00011749,-0.0002859
 5,-0.00006172,0.00011772,0.00015319,-0.00013239,-0.00014347,0.00001991
 ,0.00009381,0.00000049,0.00002196,-0.00001190,-0.00000484,0.00001795,0
 .00000078,-0.00001237,-0.00001325,-0.00000214,0.00001405,-0.00001000,0
 .00001438,-0.00001860,0.00002611,-0.00006392,0.00001074,-0.00001089,0.
 00003116,0.00000262,-0.00004101,-0.00000830|||@


 I DON'T EXACTLY UNDERSTAND WHAT YOU ARE SAYING,
 BUT YOU ARE ABSOLUTELY RIGHT.
     M.S.GORDON, IN A NDSU FACULTY MEETING
 Job cpu time:  0 days  0 hours 14 minutes 43.0 seconds.
 File lengths (MBytes):  RWF=     99 Int=      0 D2E=      0 Chk=      4 Scr=      1
 Normal termination of Gaussian 09 at Sat Aug 02 13:41:01 2025.
