%chk=C:\Users\karee\Desktop\N-BAP Optimization (HF).chk
# opt freq hf/3-21g geom=connectivity

N-BAP Optimization

1 1
 C                -10.12137662   -1.29475810   -1.94697149
 C                 -8.43945576    0.38617027   -1.46274528
 C                 -7.43012962   -0.60928879   -1.52196900
 C                 -7.79776840   -1.95453380   -1.79845376
 C                 -9.11377997   -2.28794186   -2.00585617
 C                 -6.07609783   -0.23396722   -1.30275908
 C                 -5.74833364    1.07252595   -1.03744105
 C                 -6.75620893    2.06569778   -0.97836030
 C                 -5.04937237   -1.14427474   -1.35966094
 C                 -5.37515116   -2.45257224   -1.61887140
 C                 -6.68175968   -2.81819056   -1.82878006
 H                 -3.95715108   -1.21801072   -1.25229410
 H                 -4.50013462   -3.11905784   -1.62628902
 H                 -6.41836282   -3.87567220   -1.97800032
 C                -11.58690209   -1.70378692   -2.18473295
 H                -11.87770376   -2.42941221   -1.45411519
 H                -12.21570517   -0.84205567   -2.10151063
 C                -11.72888368   -2.30870631   -3.59381555
 H                -11.33142650   -3.30214298   -3.59718560
 H                -12.76299321   -2.33735362   -3.86712270
 H                -11.19088078   -1.70692323   -4.29617588
 C                 -9.51689878   -3.74369971   -2.30562989
 H                -10.48646261   -3.93681160   -1.89629655
 H                 -8.80450566   -4.40911994   -1.86448144
 C                 -9.54988381   -3.96381265   -3.82946134
 H                 -8.71150022   -4.56092752   -4.12180836
 H                -10.45603509   -4.46558406   -4.09781803
 H                 -9.50503429   -3.01786186   -4.32752319
 C                 -4.28283798    1.48145869   -0.79933079
 H                 -3.89410439    0.94301417    0.03963507
 H                 -4.23311948    2.53210763   -0.60295138
 C                 -3.44838616    1.15319990   -2.05134369
 H                 -2.75237578    1.94514556   -2.23380361
 H                 -2.91523052    0.23876648   -1.89495767
 H                 -4.09777100    1.04761184   -2.89517454
 C                 -6.35297080    3.52139831   -0.67846862
 H                 -5.80831967    3.55826087    0.24180107
 H                 -7.23234399    4.12551102   -0.59691733
 C                 -5.46798342    4.05457305   -1.82045022
 H                 -5.78234352    5.04292092   -2.08359700
 H                 -4.44754166    4.07846839   -1.49947107
 H                 -5.55917152    3.41278225   -2.67173707
 N                 -9.79366198    0.01174191   -1.68193675
 N                 -8.07159087    1.73164926   -1.18608269
 C                 -9.44505366    2.43556854   -1.21946651
 H                 -9.65839070    3.26806493   -0.58202078
 H                 -9.77379482    1.95163420   -0.32356652
 C                -10.51276856    1.36917570   -1.52669801
 H                -11.57008318    1.33506534   -1.36600489
 H                -10.63081025    1.23307207   -0.47197437

 1 5 2.0 15 1.0 43 1.0
 2 3 1.0 43 1.0 44 1.0
 3 4 1.5 6 1.5
 4 5 1.0 11 1.5
 5 22 1.0
 6 7 1.0 9 1.5
 7 8 2.0 29 1.0
 8 36 1.0 44 1.0
 9 10 1.5 12 1.0
 10 11 1.5 13 1.0
 11 14 1.0
 12
 13
 14
 15 16 1.0 17 1.0 18 1.0
 16
 17
 18 19 1.0 20 1.0 21 1.0
 19
 20
 21
 22 23 1.0 24 1.0 25 1.0
 23
 24
 25 26 1.0 27 1.0 28 1.0
 26
 27
 28
 29 30 1.0 31 1.0 32 1.0
 30
 31
 32 33 1.0 34 1.0 35 1.0
 33
 34
 35
 36 37 1.0 38 1.0 39 1.0
 37
 38
 39 40 1.0 41 1.0 42 1.0
 40
 41
 42
 43 48 1.0
 44 45 1.0
 45 46 1.0 47 1.0 48 1.0
 46
 47
 48 49 1.0 50 1.0
 49
 50

