%chk=TRIAL (UHF-3-21) OPT.chk
# opt uhf/6-31+g(d,p) scrf=(cpcm,solvent=water) geom=connectivity

Trial(uHF-3-21) Opt

2 1
 C                 -2.89847700   -2.45195200    0.03958800
 C                 -2.74610400   -0.00361500    0.00368800
 C                 -1.37395200   -0.00114400   -0.00505600
 C                 -0.69931500   -1.22798300   -0.02995300
 C                 -1.53485600   -2.53935100   -0.04469200
 C                 -0.70338200    1.22807500    0.00946100
 C                 -1.54316900    2.53662400    0.02962500
 C                 -2.90748900    2.44427900   -0.03495100
 N                 -3.48244900   -1.10765600    0.12078700
 N                 -3.48784300    1.09779400   -0.10456600
 C                 -4.89493300    0.68813400   -0.05388800
 H                 -5.31618400    0.83620900   -1.02626800
 H                 -5.50781100    1.20093000    0.65767500
 C                 -4.89144400   -0.70274800    0.08823200
 H                 -5.54016800   -1.30811200   -0.50975700
 H                 -5.25944700   -0.70984000    1.09293200
 H                 -3.52499000    3.31807600   -0.04338700
 H                 -1.06351500    3.49138700    0.08672700
 H                 -3.51276600   -3.32792300    0.05455600
 H                 -1.05281900   -3.49219400   -0.11273900
 C                  1.37727100    0.00218400   -0.00310100
 C                  2.75564100    0.00308300    0.01790000
 C                  0.70206100   -1.22555300   -0.04133300
 C                  0.69798100    1.23040000    0.00480800
 C                  1.53408100   -2.53300900   -0.09918100
 C                  1.52553300    2.54307000    0.00086600
 C                  2.89761800   -2.45017700   -0.05895200
 C                  2.88847100    2.45830000   -0.02646100
 H                  1.04865200   -3.48416500   -0.16670400
 H                  1.03817000    3.49551100    0.01611200
 H                  3.50523200   -3.32991100   -0.10107200
 H                  3.49906700    3.33668700   -0.04900800
 N                  3.50303500   -1.11560800    0.05567900
 N                  3.48401800    1.11637200   -0.02343000
 C                  4.88221500    0.71547800   -0.04786200
 C                  4.94253200   -0.77516800    0.11701300
 H                  5.66381200    1.19449600   -0.59972000
 H                  4.96282700    1.48733800    0.68877400
 H                  5.53068300   -1.29939300   -0.60698000
 H                  5.35022900   -0.97895900    1.08508000

 1 5 2.0 9 1.0 19 1.0
 2 3 2.0 9 1.5 10 1.5
 3 4 1.5 6 1.5
 4 5 1.0 23 1.5
 5 20 1.0
 6 7 1.0 24 1.5
 7 8 2.0 18 1.0
 8 10 1.0 17 1.0
 9 14 1.0
 10 11 1.0
 11 12 1.0 13 1.0 14 1.5
 12
 13
 14 15 1.0 16 1.0
 15
 16
 17
 18
 19
 20
 21 22 2.0 23 1.5 24 1.5
 22 33 1.5 34 1.5
 23 25 1.0
 24 26 1.0
 25 27 2.0 29 1.0
 26 28 2.0 30 1.0
 27 31 1.0 33 1.0
 28 32 1.0 34 1.0
 29
 30
 31
 32
 33 36 1.0
 34 35 1.0
 35 36 1.0 37 1.0 38 1.0
 36 39 1.0 40 1.0
 37
 38
 39
 40

