%chk=C:\Users\saif_\Desktop\downs\GV\kekule.chk
# opt freq hf/6-31++g(d,p) geom=connectivity

Title Card Required

0 1
 C                 -2.94473755   -2.75295402   -0.33960831
 C                 -1.51947555   -2.75295402   -0.33960831
 C                 -0.83689755   -1.52070302   -0.33960831
 C                 -1.57332455   -0.29592202   -0.33943231
 C                 -2.98177255   -0.32093402   -0.33954531
 C                 -3.65015255   -1.57975902   -0.33960531
 C                  0.59199445   -1.49532902   -0.33956031
 C                 -0.88084755    0.95421998   -0.33906431
 C                  0.54804945    0.97960498   -0.33867031
 C                  1.28447045   -0.24517402   -0.33896031
 C                  1.23059945    2.21186098   -0.33792931
 C                  0.47460045    3.42009998   -0.33777631
 C                 -0.89412655    3.39579098   -0.33831731
 C                 -1.60674055    2.16146698   -0.33885331
 C                 -3.03110355    2.11088398   -0.33916331
 C                 -3.69441755    0.91337098   -0.33946931
 H                 -4.79469855    0.88094498   -0.33962031
 H                 -3.58724055    3.06082098   -0.33909431
 H                 -3.46680455   -3.72203502   -0.33961431
 H                 -4.75088855   -1.58641302   -0.33960331
 H                  1.01920845    4.37669598   -0.33726431
 H                 -1.47236355    4.33243898   -0.33829831
 C                 -0.76349455   -3.96120102   -0.33979131
 C                  0.60525145   -3.93689002   -0.34013131
 C                  1.31787445   -2.70256702   -0.33998631
 H                 -1.30807555   -4.91781702   -0.33970631
 H                  1.18347645   -4.87354802   -0.34037031
 C                  2.74224045   -2.65198102   -0.33995331
 C                  3.40555545   -1.45446902   -0.33910931
 C                  2.69290745   -0.22017102   -0.33855231
 H                  3.29837245   -3.60191202   -0.34045031
 H                  4.50583545   -1.42203902   -0.33885931
 C                  2.65586145    2.21186598   -0.33713631
 H                  3.17792545    3.18096698   -0.33612931
 C                  3.36128445    1.03866598   -0.33754431
 H                  4.46202445    1.04534898   -0.33709731

 1 2 1.5 6 2.0 19 1.0
 2 3 1.5 23 1.5
 3 4 1.5 7 1.5
 4 5 1.5 8 1.5
 5 6 1.5 16 1.5
 6 20 1.0
 7 10 1.5 25 1.5
 8 9 1.5 14 1.5
 9 10 1.5 11 1.5
 10 30 1.5
 11 12 1.5 33 1.5
 12 13 2.0 21 1.0
 13 14 1.5 22 1.0
 14 15 1.5
 15 16 2.0 18 1.0
 16 17 1.0
 17
 18
 19
 20
 21
 22
 23 24 2.0 26 1.0
 24 25 1.5 27 1.0
 25 28 1.5
 26
 27
 28 29 2.0 31 1.0
 29 30 1.5 32 1.0
 30 35 1.5
 31
 32
 33 34 1.0 35 2.0
 34
 35 36 1.0
 36

